     Program PWSCF v.6.1 (svn rev. 13369) starts on 29Jan2021 at 10:12:27

     Current dimensions of program PWSCF are:
     Max number of different atomic species (ntypx) = 10
     Max number of k-points (npk) =  40000
     Max angular momentum in pseudopotentials (lmaxx) =  3

     IMPORTANT: XC functional enforced from input :
     Exchange-correlation      = PBE ( 1  4  3  4 0 0)
     Any further DFT definition will be discarded
     Please, verify this is what you really want

     bravais-lattice index     =            2
     lattice parameter (alat)  =       6.7034  a.u.
     unit-cell volume          =      75.3061 (a.u.)^3
     number of atoms/cell      =            2
     number of atomic types    =            1
     number of electrons       =         8.00
     number of Kohn-Sham states=            8
     kinetic-energy cutoff     =      50.0000  Ry
     charge density cutoff     =     200.0000  Ry
     convergence threshold     =      1.0E-10
     mixing beta               =       0.7000
     number of iterations used =            8  local-TF  mixing
     Exchange-correlation      = PBE ( 1  4  3  4 0 0)
     nstep                     =           50

     celldm(1)=   6.703426  celldm(2)=   0.000000  celldm(3)=   0.000000
     celldm(4)=   0.000000  celldm(5)=   0.000000  celldm(6)=   0.000000

     crystal axes: (cart. coord. in units of alat)
               a(1) = (  -0.500000   0.000000   0.500000 )
               a(2) = (   0.000000   0.500000   0.500000 )
               a(3) = (  -0.500000   0.500000   0.000000 )

     reciprocal axes: (cart. coord. in units 2 pi/alat)
               b(1) = ( -1.000000 -1.000000  1.000000 )
               b(2) = (  1.000000  1.000000  1.000000 )
               b(3) = ( -1.000000  1.000000 -1.000000 )

     PseudoPot. # 1 for C  read from file:
     ~/PseudoPotential/upf/C_ONCV_PBE-1.0.upf
     MD5 check sum: Not computed, couldn't open file
     Pseudo is Norm-conserving, Zval =  4.0
     Generated using ONCVPSP code by D. R. Hamann
     Using radial grid of  602 points,  4 beta functions with:
                l(1) =   0
                l(2) =   0
                l(3) =   1
                l(4) =   1

     atomic species   valence    mass     pseudopotential
        C              4.00    12.01100     C ( 1.00)

     48 Sym. Ops., with inversion, found (24 have fractional translation)

   Cartesian axes

     site n.     atom                  positions (alat units)
         1           C   tau(   1) = (   0.0000000   0.0000000   0.0000000  )
         2           C   tau(   2) = (  -0.2500000   0.2500000   0.2500000  )

     number of k points=    10
                       cart. coord. in units 2pi/alat
        k(    1) = (   0.0000000   0.0000000   0.0000000), wk =   0.0160000
        k(    2) = (  -0.2000000   0.2000000  -0.2000000), wk =   0.1280000
        k(    3) = (  -0.4000000   0.4000000  -0.4000000), wk =   0.1280000
        k(    4) = (   0.0000000   0.4000000   0.0000000), wk =   0.0960000
        k(    5) = (  -0.2000000   0.6000000  -0.2000000), wk =   0.3840000
        k(    6) = (   0.6000000  -0.2000000   0.6000000), wk =   0.3840000
        k(    7) = (   0.4000000   0.0000000   0.4000000), wk =   0.1920000
        k(    8) = (   0.0000000   0.8000000   0.0000000), wk =   0.0960000
        k(    9) = (   0.8000000   0.0000000   0.8000000), wk =   0.1920000
        k(   10) = (   0.6000000  -0.2000000   1.0000000), wk =   0.3840000

     Initial potential from superposition of free atoms

     starting charge    7.98607, renormalised to    8.00000
     Starting wfc are random

     Self-consistent Calculation

     iteration #  1     ecut=    50.00 Ry     beta=0.70
     Davidson diagonalization with overlap
     ethr =  1.00E-02,  avg # of iterations =  8.7

     total energy              =     -22.70919812 Ry
     Harris-Foulkes estimate   =     -22.74513937 Ry
     estimated scf accuracy    <       0.11082157 Ry

[...]

     End of self-consistent calculation

          k = 0.0000 0.0000 0.0000 (   459 PWs)   bands (ev):

    -8.0452  13.6685  13.6685  13.6685  19.3109  19.3109  19.3109  27.3295

          k =-0.2000 0.2000-0.2000 (   459 PWs)   bands (ev):

[...]

     highest occupied, lowest unoccupied level (ev):    13.6685   17.8802

!    total energy              =     -22.76850599 Ry
     Harris-Foulkes estimate   =     -22.76850599 Ry
     estimated scf accuracy    <          1.5E-11 Ry

     The total energy is the sum of the following terms:

     one-electron contribution =       8.17197365 Ry
     hartree contribution      =       1.91998322 Ry
     xc contribution           =      -7.14561942 Ry
     ewald contribution        =     -25.71484344 Ry

     convergence has been achieved in   9 iterations

     Forces acting on atoms (cartesian axes, Ry/au):

     atom    1 type  1   force =     0.00000000    0.00000000    0.00000000
     atom    2 type  1   force =     0.00000000    0.00000000   -0.00000000

     Total force =     0.000000     Total SCF correction =     0.000000

     Computing stress (Cartesian axis) and pressure

          total   stress  (Ry/bohr**3)                   (kbar)     P=  -62.33
  -0.00042372   0.00000000   0.00000000        -62.33      0.00      0.00
   0.00000000  -0.00042372  -0.00000000          0.00    -62.33     -0.00
   0.00000000  -0.00000000  -0.00042372          0.00     -0.00    -62.33

     BFGS Geometry Optimization

     number of scf cycles    =   1
     number of bfgs steps    =   0

     enthalpy new            =     -22.7685059946 Ry

     new trust radius        =       0.0183851108 bohr
     new conv_thr            =            1.0E-10 Ry

     new unit-cell volume =     72.93823 a.u.^3 (    10.80833 Ang^3 )
     density =      3.69062 g/cm^3

CELL_PARAMETERS (alat=  6.70342551)
  -0.494703474  -0.000000000   0.494703474
  -0.000000000   0.494703474   0.494703474
  -0.494703474   0.494703474  -0.000000000

ATOMIC_POSITIONS (crystal)
C       -0.000000000   0.000000000  -0.000000000
C        0.250000000   0.250000000   0.250000000

     Writing output data file c.save
     NEW-OLD atomic charge density approx. for the potential
     extrapolated charge    7.74074, renormalised to    8.00000

[...]

     enthalpy old            =     -22.7685059946 Ry
     enthalpy new            =     -22.7682056913 Ry

     CASE: enthalpy_new > enthalpy_old

[...]

     number of scf cycles    =   3
     number of bfgs steps    =   1

     enthalpy old            =     -22.7685059946 Ry
     enthalpy new            =     -22.7687045765 Ry

     CASE: enthalpy_new < enthalpy_old

     small trust_radius: resetting bfgs history

     new trust radius        =       0.0001000000 bohr
     new conv_thr            =            1.0E-12 Ry

     new unit-cell volume =     74.37378 a.u.^3 (    11.02106 Ang^3 )
     density =      3.61939 g/cm^3

[...]

ATOMIC_POSITIONS (crystal)
C       -0.000000000  -0.000000000   0.000000000
C        0.250000000   0.250000000   0.250000000

     Writing output data file c.save
     NEW-OLD atomic charge density approx. for the potential
     extrapolated charge    7.99861, renormalised to    8.00000

[...]

     Threshold (ethr) on eigenvalues was too large:
     Diagonalizing with lowered threshold

     Davidson diagonalization with overlap
     ethr =  1.88E-10,  avg # of iterations =  2.5

[...]

     bfgs converged in   4 scf cycles and   2 bfgs steps
     (criteria: energy <  1.0E-04 Ry, force <  1.0E-03Ry/Bohr, cell <  5.0E-01kbar)

     End of BFGS Geometry Optimization

     Final enthalpy =     -22.7687045959 Ry
Begin final coordinates
     new unit-cell volume =     74.37378 a.u.^3 (    11.02106 Ang^3 )
     density =      3.61939 g/cm^3

CELL_PARAMETERS (alat=  6.70342551)
  -0.497927950  -0.000000000   0.497927950
  -0.000000000   0.497927950   0.497927950
  -0.497927950   0.497927950  -0.000000000

ATOMIC_POSITIONS (crystal)
C       -0.000000000  -0.000000000   0.000000000
C        0.250000000   0.250000000   0.250000000
End final coordinates

     A final scf calculation at the relaxed structure.
     The G-vectors are recalculated for the final unit cell
     Results may differ from those at the preceding step.

     bravais-lattice index     =            2
     lattice parameter (alat)  =       6.7034  a.u.
     unit-cell volume          =      74.3738 (a.u.)^3
     number of atoms/cell      =            2
     number of atomic types    =            1
     number of electrons       =         8.00
     number of Kohn-Sham states=            8
     kinetic-energy cutoff     =      50.0000  Ry
     charge density cutoff     =     200.0000  Ry
     convergence threshold     =      1.0E-12
     mixing beta               =       0.7000
     number of iterations used =            8  local-TF  mixing
     Exchange-correlation      = PBE ( 1  4  3  4 0 0)

     celldm(1)=   6.703426  celldm(2)=   0.000000  celldm(3)=   0.000000
     celldm(4)=   0.000000  celldm(5)=   0.000000  celldm(6)=   0.000000

     crystal axes: (cart. coord. in units of alat)
               a(1) = (  -0.497928  -0.000000   0.497928 )
               a(2) = (  -0.000000   0.497928   0.497928 )
               a(3) = (  -0.497928   0.497928  -0.000000 )

     reciprocal axes: (cart. coord. in units 2 pi/alat)
               b(1) = ( -1.004161 -1.004161  1.004161 )
               b(2) = (  1.004161  1.004161  1.004161 )
               b(3) = ( -1.004161  1.004161 -1.004161 )

     PseudoPot. # 1 for C  read from file:
     ~/PseudoPotential/upf/C_ONCV_PBE-1.0.upf
     MD5 check sum: Not computed, couldn't open file
     Pseudo is Norm-conserving, Zval =  4.0
     Generated using ONCVPSP code by D. R. Hamann
     Using radial grid of  602 points,  4 beta functions with:
                l(1) =   0
                l(2) =   0
                l(3) =   1
                l(4) =   1

     atomic species   valence    mass     pseudopotential
        C              4.00    12.01100     C ( 1.00)

     48 Sym. Ops., with inversion, found (24 have fractional translation)

   Cartesian axes

     site n.     atom                  positions (alat units)
         1           C   tau(   1) = (  -0.0000000   0.0000000  -0.0000000  )
         2           C   tau(   2) = (  -0.2489640   0.2489640   0.2489640  )

     number of k points=    10
                       cart. coord. in units 2pi/alat
        k(    1) = (   0.0000000   0.0000000   0.0000000), wk =   0.0160000
        k(    2) = (  -0.2008323   0.2008323  -0.2008323), wk =   0.1280000
        k(    3) = (  -0.4016645   0.4016645  -0.4016645), wk =   0.1280000
        k(    4) = (   0.0000000   0.4016645   0.0000000), wk =   0.0960000
        k(    5) = (  -0.2008323   0.6024968  -0.2008323), wk =   0.3840000
        k(    6) = (   0.6024968  -0.2008323   0.6024968), wk =   0.3840000
        k(    7) = (   0.4016645   0.0000000   0.4016645), wk =   0.1920000
        k(    8) = (   0.0000000   0.8033291   0.0000000), wk =   0.0960000
        k(    9) = (   0.8033291   0.0000000   0.8033291), wk =   0.1920000
        k(   10) = (   0.6024968  -0.2008323   1.0041613), wk =   0.3840000

     Initial potential from superposition of free atoms

     starting charge    7.98607, renormalised to    8.00000
     Starting wfc are random

     Writing output data file c.save

     Self-consistent Calculation

[...]

     total energy              =     -22.76774943 Ry
     Harris-Foulkes estimate   =     -22.76774943 Ry
     estimated scf accuracy    <          3.8E-12 Ry

     iteration #  9     ecut=    50.00 Ry     beta=0.70
     Davidson diagonalization with overlap
     ethr =  1.00E-13,  avg # of iterations =  2.2

     End of self-consistent calculation

[...]

          k =-0.2008 0.6025-0.2008 (   444 PWs)   bands (ev):

[...]

          k = 0.6025-0.2008 1.0042 (   446 PWs)   bands (ev):

    -0.9030   3.5690   5.3325   7.3114  23.0385  23.8811  26.0268  29.4293

     highest occupied, lowest unoccupied level (ev):    13.8930   18.1354

!    total energy              =     -22.76774943 Ry
     Harris-Foulkes estimate   =     -22.76774943 Ry
     estimated scf accuracy    <          2.0E-13 Ry

     The total energy is the sum of the following terms:

     one-electron contribution =       8.31271808 Ry
     hartree contribution      =       1.90754509 Ry
     xc contribution           =      -7.16616082 Ry
     ewald contribution        =     -25.82185178 Ry

     convergence has been achieved in   9 iterations

     Forces acting on atoms (cartesian axes, Ry/au):

     atom    1 type  1   force =    -0.00000000   -0.00000000    0.00000000
     atom    2 type  1   force =     0.00000000    0.00000000   -0.00000000

     Total force =     0.000000     Total SCF correction =     0.000000

     Computing stress (Cartesian axis) and pressure

          total   stress  (Ry/bohr**3)                   (kbar)     P=   -5.51
  -0.00003745  -0.00000000  -0.00000000         -5.51     -0.00     -0.00
  -0.00000000  -0.00003745   0.00000000         -0.00     -5.51      0.00
  -0.00000000   0.00000000  -0.00003745         -0.00      0.00     -5.51

     Writing output data file c.save

     General routines

     Parallel routines

   This run was terminated on:  10:12:39  29Jan2021

   JOB DONE.