     Program PWSCF v.6.1 (svn rev. 13369) starts on 10Nov2020 at  9:21:49

     Current dimensions of program PWSCF are:
     Max number of different atomic species (ntypx) = 10
     Max number of k-points (npk) =  40000
     Max angular momentum in pseudopotentials (lmaxx) =  3

     IMPORTANT: XC functional enforced from input :
     Exchange-correlation      = PBE ( 1  4  3  4 0 0)
     Any further DFT definition will be discarded
     Please, verify this is what you really want

     bravais-lattice index     =            2
     lattice parameter (alat)  =      33.5171  a.u.
     unit-cell volume          =    9413.2672 (a.u.)^3
     number of atoms/cell      =          250
     number of atomic types    =            2
     number of electrons       =       998.00
     number of Kohn-Sham states=          600
     kinetic-energy cutoff     =      50.0000  Ry
     charge density cutoff     =     200.0000  Ry
     convergence threshold     =      1.0E-10
     mixing beta               =       0.7000
     number of iterations used =            8  local-TF  mixing
     Exchange-correlation      = PBE ( 1  4  3  4 0 0)
     nstep                     =           50

     celldm(1)=  33.517128  celldm(2)=   0.000000  celldm(3)=   0.000000
     celldm(4)=   0.000000  celldm(5)=   0.000000  celldm(6)=   0.000000

     crystal axes: (cart. coord. in units of alat)
               a(1) = (  -0.500000   0.000000   0.500000 )
               a(2) = (   0.000000   0.500000   0.500000 )
               a(3) = (  -0.500000   0.500000   0.000000 )

     reciprocal axes: (cart. coord. in units 2 pi/alat)
               b(1) = ( -1.000000 -1.000000  1.000000 )
               b(2) = (  1.000000  1.000000  1.000000 )
               b(3) = ( -1.000000  1.000000 -1.000000 )

     PseudoPot. # 1 for C  read from file:
     ~/PseudoPotential/upf/C_ONCV_PBE-1.0.upf
     MD5 check sum: Not computed, couldn't open file
     Pseudo is Norm-conserving, Zval =  4.0
     Generated using ONCVPSP code by D. R. Hamann
     Using radial grid of  602 points,  4 beta functions with:
                l(1) =   0
                l(2) =   0
                l(3) =   1
                l(4) =   1

[...]

     atomic species   valence    mass     pseudopotential
        C              4.00    12.01100     C ( 1.00)
        B              3.00    10.81100     B ( 1.00)

     No symmetry found

   Cartesian axes

     site n.     atom                  positions (alat units)
         1           B   tau(   1) = (   0.0000000   0.0000000   0.0000000  )
         2           B   tau(   2) = (  -0.0500000   0.0500000   0.0500000  )
         3           C   tau(   3) = (  -0.1000000   0.1000000   0.0000000  )
         4           C   tau(   4) = (  -0.1500000   0.1500000   0.0500000  )
         5           C   tau(   5) = (  -0.2000000   0.2000000   0.0000000  )
         6           C   tau(   6) = (  -0.2500000   0.2500000   0.0500000  )
         7           C   tau(   7) = (  -0.3000000   0.3000000   0.0000000  )
         8           C   tau(   8) = (  -0.3500000   0.3500000   0.0500000  )
         9           C   tau(   9) = (  -0.4000000   0.4000000   0.0000000  )
        10           C   tau(  10) = (  -0.4500000   0.4500000   0.0500000  )
        11           C   tau(  11) = (   0.0000000   0.1000000   0.1000000  )
        12           C   tau(  12) = (  -0.0500000   0.1500000   0.1500000  )
        13           C   tau(  13) = (  -0.1000000   0.2000000   0.1000000  )
        14           C   tau(  14) = (  -0.1500000   0.2500000   0.1500000  )
        15           C   tau(  15) = (  -0.2000000   0.3000000   0.1000000  )
        16           C   tau(  16) = (  -0.2500000   0.3500000   0.1500000  )
        17           C   tau(  17) = (  -0.3000000   0.4000000   0.1000000  )
        18           C   tau(  18) = (  -0.3500000   0.4500000   0.1500000  )
        19           C   tau(  19) = (  -0.4000000   0.5000000   0.1000000  )
        20           C   tau(  20) = (  -0.4500000   0.5500000   0.1500000  )
        21           C   tau(  21) = (   0.0000000   0.2000000   0.2000000  )
        22           C   tau(  22) = (  -0.0500000   0.2500000   0.2500000  )
        23           C   tau(  23) = (  -0.1000000   0.3000000   0.2000000  )
        24           C   tau(  24) = (  -0.1500000   0.3500000   0.2500000  )
        25           C   tau(  25) = (  -0.2000000   0.4000000   0.2000000  )
        26           C   tau(  26) = (  -0.2500000   0.4500000   0.2500000  )
        27           C   tau(  27) = (  -0.3000000   0.5000000   0.2000000  )
        28           C   tau(  28) = (  -0.3500000   0.5500000   0.2500000  )
        29           C   tau(  29) = (  -0.4000000   0.6000000   0.2000000  )
        30           C   tau(  30) = (  -0.4500000   0.6500000   0.2500000  )
        31           C   tau(  31) = (   0.0000000   0.3000000   0.3000000  )
        32           C   tau(  32) = (  -0.0500000   0.3500000   0.3500000  )
        33           C   tau(  33) = (  -0.1000000   0.4000000   0.3000000  )
        34           C   tau(  34) = (  -0.1500000   0.4500000   0.3500000  )
        35           C   tau(  35) = (  -0.2000000   0.5000000   0.3000000  )
        36           C   tau(  36) = (  -0.2500000   0.5500000   0.3500000  )
        37           C   tau(  37) = (  -0.3000000   0.6000000   0.3000000  )
        38           C   tau(  38) = (  -0.3500000   0.6500000   0.3500000  )
        39           C   tau(  39) = (  -0.4000000   0.7000000   0.3000000  )
        40           C   tau(  40) = (  -0.4500000   0.7500000   0.3500000  )
        41           C   tau(  41) = (   0.0000000   0.4000000   0.4000000  )
        42           C   tau(  42) = (  -0.0500000   0.4500000   0.4500000  )
        43           C   tau(  43) = (  -0.1000000   0.5000000   0.4000000  )
        44           C   tau(  44) = (  -0.1500000   0.5500000   0.4500000  )
        45           C   tau(  45) = (  -0.2000000   0.6000000   0.4000000  )
        46           C   tau(  46) = (  -0.2500000   0.6500000   0.4500000  )
        47           C   tau(  47) = (  -0.3000000   0.7000000   0.4000000  )
        48           C   tau(  48) = (  -0.3500000   0.7500000   0.4500000  )
        49           C   tau(  49) = (  -0.4000000   0.8000000   0.4000000  )
        50           C   tau(  50) = (  -0.4500000   0.8500000   0.4500000  )
        51           C   tau(  51) = (  -0.1000000   0.0000000   0.1000000  )
        52           C   tau(  52) = (  -0.1500000   0.0500000   0.1500000  )
        53           C   tau(  53) = (  -0.2000000   0.1000000   0.1000000  )
        54           C   tau(  54) = (  -0.2500000   0.1500000   0.1500000  )
        55           C   tau(  55) = (  -0.3000000   0.2000000   0.1000000  )
        56           C   tau(  56) = (  -0.3500000   0.2500000   0.1500000  )
        57           C   tau(  57) = (  -0.4000000   0.3000000   0.1000000  )
        58           C   tau(  58) = (  -0.4500000   0.3500000   0.1500000  )
        59           C   tau(  59) = (  -0.5000000   0.4000000   0.1000000  )
        60           C   tau(  60) = (  -0.5500000   0.4500000   0.1500000  )
[...]
       236           C   tau( 236) = (  -0.6500000   0.5500000   0.7500000  )
       237           C   tau( 237) = (  -0.7000000   0.6000000   0.7000000  )
       238           C   tau( 238) = (  -0.7500000   0.6500000   0.7500000  )
       239           C   tau( 239) = (  -0.8000000   0.7000000   0.7000000  )
       240           C   tau( 240) = (  -0.8500000   0.7500000   0.7500000  )
       241           C   tau( 241) = (  -0.4000000   0.4000000   0.8000000  )
       242           C   tau( 242) = (  -0.4500000   0.4500000   0.8500000  )
       243           C   tau( 243) = (  -0.5000000   0.5000000   0.8000000  )
       244           C   tau( 244) = (  -0.5500000   0.5500000   0.8500000  )
       245           C   tau( 245) = (  -0.6000000   0.6000000   0.8000000  )
       246           C   tau( 246) = (  -0.6500000   0.6500000   0.8500000  )
       247           C   tau( 247) = (  -0.7000000   0.7000000   0.8000000  )
       248           C   tau( 248) = (  -0.7500000   0.7500000   0.8500000  )
       249           C   tau( 249) = (  -0.8000000   0.8000000   0.8000000  )
       250           C   tau( 250) = (  -0.8500000   0.8500000   0.8500000  )

     number of k points=     1
                       cart. coord. in units 2pi/alat
        k(    1) = (   0.0000000   0.0000000   0.0000000), wk =   2.0000000

     Initial potential from superposition of free atoms

     starting charge  996.23812, renormalised to  998.00000
     Starting wfc are random

     Self-consistent Calculation

     iteration #  1     ecut=    50.00 Ry     beta=0.70
     Davidson diagonalization with overlap
     ethr =  1.00E-02,  avg # of iterations = 11.0

     total energy              =   -2834.78514844 Ry
     Harris-Foulkes estimate   =   -2839.65984107 Ry
     estimated scf accuracy    <      15.62956019 Ry

[...]

     negative rho (up, down):  3.345E-05 0.000E+00

[...]

     End of self-consistent calculation

          k = 0.0000 0.0000 0.0000 ( 56233 PWs)   bands (ev):

    -8.0775  -7.0318  -7.0064  -6.9983  -6.9983  -6.9620  -6.9620  -6.9519
    -6.8701  -6.6126  -6.6126  -6.5876  -6.5653  -6.5653  -6.2998  -5.1670
    -5.1670  -5.1641  -5.1641  -5.1593  -5.1550  -5.1355  -5.1355  -5.1122
    -5.1122  -5.0886  -4.9554  -4.1290  -4.1253  -4.1253  -4.1231  -4.1231
    -4.1202  -4.1002  -4.1002  -4.0935  -4.0896  -4.0896  -4.0854  -4.0826
    -4.0826  -4.0804  -4.0680  -4.0604  -4.0604  -4.0068  -4.0068  -3.9710
    -3.9710  -3.9283  -3.9004  -3.7666  -3.7594  -3.7142  -3.7142  -3.7076
    -3.7076  -3.5839  -3.1820  -2.2825  -2.2825  -2.2721  -2.2721  -2.2585
    -2.2188  -1.6925  -1.6914  -1.6744  -1.6736  -1.6736  -1.6690  -1.6690
    -1.6565  -1.6565  -1.6562  -1.6562  -1.6320  -1.6308  -1.6065  -1.6065
    -1.5983  -1.5983  -1.5842  -1.5842  -1.5662  -1.4993  -1.4993  -1.4329
    -1.3722  -1.1033  -1.1013  -1.1013  -1.0991  -1.0933  -1.0933  -1.0896
    -1.0787  -1.0674  -1.0674  -1.0609  -1.0609  -1.0530  -1.0530  -1.0498
    -1.0498  -1.0278  -0.9994  -0.9531  -0.9531  -0.9348  -0.9348  -0.5651
    -0.0294   0.7854   0.7918   0.7918   0.7982   0.7982   0.8109   0.8300
     0.8300   0.8349   0.8349   0.9247   1.0192   1.2301   1.2362   1.2362
     1.2411   1.2411   1.2418   1.2454   1.2454   1.2475   1.2475   1.2482
     1.2501   1.2748   1.2748   1.2812   1.2901   1.2901   1.3067   1.3226
     1.3226   1.3407   1.3697   1.3697   1.3736   1.4034   1.4155   1.4155
     1.4195   1.4195   1.4343   1.4853   1.4853   1.5495   1.5495   1.7820
     1.8947   2.0744   2.0785   2.0785   2.1222   2.1651   2.1651   2.2582
     2.4145   3.3180   3.3187   3.3187   3.3236   3.3236   3.3240   3.3325
     3.3399   3.3474   3.3474   3.3540   3.3540   3.3877   3.3877   3.3899
     3.3899   3.4138   3.4360   3.4727   3.4727   3.4869   3.4869   3.7783
     3.8074   4.1277   4.1277   4.1289   4.1289   4.2597   4.2917   4.6777
     4.6777   4.6779   4.6787   4.6787   4.6812   4.6814   4.6824   4.6824
     4.6865   4.6865   4.6894   4.7091   4.7161   4.7161   4.7207   4.7207
[...]
        35           C   tau(  35) = (  -0.1993176   0.4981614   0.2985577  )
        36           C   tau(  36) = (  -0.2491528   0.5480613   0.3483940  )
        37           C   tau(  37) = (  -0.2987387   0.5978281   0.2987387  )
        38           C   tau(  38) = (  -0.3485653   0.6476673   0.3485653  )
        39           C   tau(  39) = (  -0.3983237   0.6974866   0.2987225  )
        40           C   tau(  40) = (  -0.4482137   0.7472971   0.3485141  )
        41           C   tau(  41) = (   0.0002704   0.3980156   0.3980156  )
        42           C   tau(  42) = (  -0.0524802   0.4477036   0.4477036  )
        43           C   tau(  43) = (  -0.1001331   0.4979521   0.3977748  )
        44           C   tau(  44) = (  -0.1499336   0.5482697   0.4475786  )
        45           C   tau(  45) = (  -0.1994832   0.5977736   0.3979529  )
        46           C   tau(  46) = (  -0.2490047   0.6476831   0.4481472  )
        47           C   tau(  47) = (  -0.2987225   0.6974866   0.3983237  )
        48           C   tau(  48) = (  -0.3485141   0.7472971   0.4482137  )
        49           C   tau(  49) = (  -0.3982969   0.7970678   0.3982969  )
        50           C   tau(  50) = (  -0.4482588   0.8470148   0.4482588  )
        51           C   tau(  51) = (  -0.1003080  -0.0029687   0.1003080  )
        52           C   tau(  52) = (  -0.1499993   0.0497731   0.1499993  )
        53           C   tau(  53) = (  -0.1992107   0.0994508   0.0994508  )
        54           C   tau(  54) = (  -0.2491546   0.1494147   0.1494147  )
        55           C   tau(  55) = (  -0.2989247   0.1991947   0.0994994  )
        56           C   tau(  56) = (  -0.3487380   0.2489895   0.1493839  )
        57           C   tau(  57) = (  -0.3985465   0.2987070   0.0995615  )
        58           C   tau(  58) = (  -0.4484492   0.3482285   0.1497608  )
        59           C   tau(  59) = (  -0.4979521   0.3977748   0.1001331  )
        60           C   tau(  60) = (  -0.5482697   0.4475786   0.1499336  )
[...]
       236           C   tau( 236) = (  -0.6475135   0.5477885   0.7471399  )
       237           C   tau( 237) = (  -0.6972700   0.5976070   0.6972700  )
       238           C   tau( 238) = (  -0.7471148   0.6474292   0.7471148  )
       239           C   tau( 239) = (  -0.7968525   0.6972299   0.6972299  )
       240           C   tau( 240) = (  -0.8467603   0.7470646   0.7470646  )
       241           C   tau( 241) = (  -0.3982969   0.3982969   0.7970678  )
       242           C   tau( 242) = (  -0.4482588   0.4482588   0.8470148  )
       243           C   tau( 243) = (  -0.4980147   0.4980147   0.7970454  )
       244           C   tau( 244) = (  -0.5477887   0.5477887   0.8468938  )
       245           C   tau( 245) = (  -0.5975905   0.5975905   0.7969363  )
       246           C   tau( 246) = (  -0.6474688   0.6474688   0.8466882  )
       247           C   tau( 247) = (  -0.6972299   0.6972299   0.7968525  )
       248           C   tau( 248) = (  -0.7470646   0.7470646   0.8467603  )
       249           C   tau( 249) = (  -0.7968523   0.7968523   0.7968523  )
       250           C   tau( 250) = (  -0.8467572   0.8467572   0.8467572  )

     number of k points=     1
                       cart. coord. in units 2pi/alat
        k(    1) = (   0.0000000   0.0000000   0.0000000), wk =   2.0000000

     Initial potential from superposition of free atoms

     starting charge  996.23812, renormalised to  998.00000
     Starting wfc are random

     Writing output data file b.save

     Self-consistent Calculation

     iteration #  1     ecut=    50.00 Ry     beta=0.70
     Davidson diagonalization with overlap
     c_bands:  3 eigenvalues not converged
     ethr =  1.00E-06,  avg # of iterations = 40.0

[...]

     negative rho (up, down):  3.927E-06 0.000E+00

[...]

     total energy              =   -2834.41930960 Ry
     Harris-Foulkes estimate   =   -2834.41930960 Ry
     estimated scf accuracy    <          1.3E-12 Ry

     iteration # 19     ecut=    50.00 Ry     beta=0.70
     Davidson diagonalization with overlap
     ethr =  1.00E-13,  avg # of iterations =  1.0

     End of self-consistent calculation

          k = 0.0000 0.0000 0.0000 ( 55657 PWs)   bands (ev):

    -8.0136  -6.9360  -6.9325  -6.9293  -6.9293  -6.8940  -6.8940  -6.8885
    -6.7806  -6.5457  -6.5457  -6.5305  -6.5218  -6.5218  -6.2981  -5.0891
    -5.0867  -5.0867  -5.0839  -5.0837  -5.0837  -5.0674  -5.0674  -5.0415
    -5.0415  -5.0088  -4.8686  -4.0290  -4.0237  -4.0237  -4.0168  -4.0168
    -4.0109  -4.0106  -4.0106  -4.0049  -4.0049  -4.0028  -4.0007  -3.9984
    -3.9956  -3.9903  -3.9903  -3.9877  -3.9877  -3.9496  -3.9496  -3.9123
    -3.9123  -3.8491  -3.7978  -3.6784  -3.6768  -3.6737  -3.6737  -3.6407
    -3.6407  -3.5409  -3.1291  -2.1914  -2.1914  -2.1913  -2.1913  -2.1643
    -2.1173  -1.5524  -1.5503  -1.5437  -1.5437  -1.5344  -1.5344  -1.5312
    -1.5312  -1.5290  -1.5262  -1.5242  -1.5242  -1.5029  -1.5027  -1.5027
    -1.5019  -1.5019  -1.4876  -1.4849  -1.4849  -1.4362  -1.4362  -1.3291
    -1.2480  -0.9809  -0.9809  -0.9798  -0.9798  -0.9725  -0.9725  -0.9703
    -0.9682  -0.9649  -0.9649  -0.9648  -0.9623  -0.9580  -0.9512  -0.9396
    -0.9396  -0.9381  -0.9381  -0.8958  -0.8958  -0.8794  -0.8794  -0.5325
     0.0556   0.9162   0.9204   0.9204   0.9254   0.9254   0.9319   0.9478
     0.9478   0.9491   0.9491   1.0390   1.1342   1.3374   1.3461   1.3477
     1.3477   1.3557   1.3557   1.3573   1.3614   1.3614   1.3666   1.3666
     1.3711   1.3711   1.3715   1.3817   1.3918   1.3918   1.3937   1.3937
     1.3996   1.4410   1.4680   1.4725   1.4725   1.5142   1.5163   1.5167
     1.5167   1.5211   1.5211   1.5711   1.5711   1.6306   1.6306   1.8819
     2.0089   2.1676   2.1716   2.1716   2.2169   2.2411   2.2411   2.3351
     2.5714   3.4776   3.4802   3.4802   3.4819   3.4819   3.4866   3.4866
     3.4878   3.4897   3.4925   3.4974   3.4974   3.5090   3.5090   3.5188
     3.5236   3.5236   3.5387   3.5712   3.5712   3.5975   3.5975   3.9021
     3.9663   4.2599   4.2599   4.2677   4.2677   4.4064   4.4302   4.7759
     4.7762   4.7828   4.7828   4.7907   4.7907   4.7958   4.7985   4.7985
     4.8086   4.8087   4.8087   4.8315   4.8321   4.8321   4.8378   4.8378
     4.8457   4.8491   4.8515   4.8515   4.8538   4.8538   4.8564   4.8730
     4.8730   4.8739   4.8826   4.8826   4.9172   4.9172   4.9219   4.9627
     4.9627   5.1353   5.1982   5.2468   5.2574   5.2596   5.2597   5.2597
     5.2687   5.2687   5.2754   5.2821   5.2853   5.2853   5.2881   5.2881
     5.2926   5.2926   5.2942   5.2942   5.3472   5.3472   5.4445   5.5252
     5.5252   5.6112   5.8543   6.7053   6.7053   6.7130   6.7177   6.7177
     6.7240   6.7390   6.7390   6.7499   6.7499   6.8486   6.9422   7.2106
     7.2215   7.2215   7.2229   7.2234   7.2234   7.2410   7.2410   7.2415
     7.2441   7.2459   7.2459   7.2469   7.2497   7.2547   7.2547   7.2572
     7.2572   7.2600   7.2626   7.2626   7.2627   7.2627   7.2689   7.2886
     7.2886   7.2922   7.2922   7.2993   7.3032   7.3044   7.3202   7.3202
     7.3204   7.3341   7.3353   7.3353   7.3422   7.3422   7.3470   7.3470
     7.3981   7.4294   7.4294   7.4726   7.4726   7.5431   7.6298   7.6407
     7.6496   7.6496   7.6545   7.6545   7.6678   7.6678   7.6796   7.6799
     7.6799   7.6810   7.6853   7.6853   7.7064   7.7064   7.7073   7.7183
     7.7879   7.7879   7.8224   7.8260   7.8260   7.8578   7.8941   7.9400
     7.9474   7.9474   7.9687   7.9687   7.9712   7.9833   8.0706   8.0706
     8.1801   8.1801   8.2819   8.8262   8.8262   8.8332   8.8389   8.8488
     8.8488   8.8886   8.8931   8.9892   8.9892   8.9924   8.9988   8.9988
     9.0007   9.0029   9.0168   9.0201   9.0222   9.0222   9.0223   9.0223
     9.0280   9.0280   9.0457   9.0457   9.0850   9.1052   9.1052   9.1224
     9.1224   9.2411   9.2620   9.2636   9.2636   9.2673   9.2766   9.2766
     9.2891   9.2954   9.2963   9.2963   9.2968   9.2968   9.3024   9.3024
     9.3049   9.3059   9.3103   9.3103   9.3349   9.4374   9.4374   9.5097
     9.5097   9.5968   9.6073   9.8350   9.8350   9.8367   9.8445   9.8445
     9.8446   9.8489   9.8556   9.8608   9.8608   9.8646   9.8646   9.8647
     9.8822   9.8975   9.8975   9.9038   9.9038   9.9170  10.0699  10.0699
    10.1270  10.1270  10.2980  10.4799  10.4901  10.4948  10.4948  10.4971
    10.4971  10.5383  10.5775  10.5775  10.6418  10.6472  10.6472  10.7482
    10.7482  10.7514  10.7514  10.9006  11.0089  11.0730  11.0730  11.0938
    11.0979  11.0979  11.1149  11.1230  11.1230  11.1249  11.1466  11.1466
    11.2795  11.2795  11.2937  11.2937  11.5184  11.7504  11.7562  11.7710
    11.7710  11.7781  11.7894  11.7894  11.8767  11.8767  11.9187  11.9187
    12.1803  12.4203  12.4203  12.4324  12.4352  12.4370  12.4370  12.4630
    12.4630  12.4738  12.4850  12.4850  12.5503  12.5503  12.7067  12.7067
    13.6203  13.8505  13.8505  14.8386  18.0578  18.0714  18.0714  18.0815
    18.0815  18.1100  18.6285  18.6329  18.6329  18.6838  18.6852  18.6852
    19.1990  19.2222  19.2222  19.2591  19.2614  19.2614  19.2822  19.2822
    19.3109  19.3109  19.3167  19.3175  19.4836  19.5379  19.5379  19.9967
    19.9967  20.0034  20.0043  20.0043  20.0113  20.0137  20.0137  20.0250
    20.0293  20.0311  20.0311  20.0374  20.0391  20.0391  20.0427  20.0427
    20.0451  20.0596  20.0649  20.0744  20.0744  20.0779  20.0779  20.1808
    20.1808  20.1888  20.2296  20.2296  20.3045  21.1335  21.1556  21.1556
    21.1564  21.1564  21.1572  21.1723  21.1723  21.1781  21.1781  21.1816
    21.1950  21.2117  21.2117  21.2169  21.2169  21.2193  21.2239  21.2300
    21.2300  21.2352  21.2352  21.2628  21.2761  21.2761  21.2776  21.2787
    21.2787  21.2827  21.2879  21.2983  21.2983  21.3052  21.3052  21.3230
    21.3230  21.3242  21.3610  21.4860  21.4860  21.7446  21.7861  21.7861

     highest occupied, lowest unoccupied level (ev):    13.8505   14.8386

!    total energy              =   -2834.41930960 Ry
     Harris-Foulkes estimate   =   -2834.41930960 Ry
     estimated scf accuracy    <          2.6E-13 Ry

     The total energy is the sum of the following terms:

     one-electron contribution =    1027.87543473 Ry
     hartree contribution      =     240.59644930 Ry
     xc contribution           =    -892.84299297 Ry
     ewald contribution        =   -3210.04820066 Ry

     convergence has been achieved in  19 iterations

     Forces acting on atoms (cartesian axes, Ry/au):

     atom    1 type  2   force =    -0.00055083    0.00055083    0.00055083
     atom    2 type  2   force =     0.00049231   -0.00049231   -0.00049231
     atom    3 type  1   force =    -0.00019594    0.00019595    0.00043648
     atom    4 type  1   force =     0.00010830   -0.00010830   -0.00025240
     atom    5 type  1   force =     0.00001002   -0.00001003    0.00003228
     atom    6 type  1   force =     0.00017178   -0.00017178   -0.00027166
     atom    7 type  1   force =    -0.00016133    0.00016133    0.00026954
     atom    8 type  1   force =    -0.00000779    0.00000779   -0.00003781
     atom    9 type  1   force =    -0.00010725    0.00010724    0.00024237
     atom   10 type  1   force =     0.00018677   -0.00018678   -0.00045832
     atom   11 type  1   force =    -0.00043648    0.00019595    0.00019595
     atom   12 type  1   force =     0.00025240   -0.00010830   -0.00010830
     atom   13 type  1   force =     0.00001025    0.00005725   -0.00001025
     atom   14 type  1   force =     0.00023190   -0.00022913   -0.00023190
     atom   15 type  1   force =     0.00010282   -0.00009425    0.00004005
     atom   16 type  1   force =     0.00024720   -0.00034701   -0.00004049
     atom   17 type  1   force =     0.00003606   -0.00005579    0.00034412
     atom   18 type  1   force =     0.00001489   -0.00016887   -0.00009502
     atom   19 type  1   force =    -0.00005408    0.00025131    0.00020344
     atom   20 type  1   force =     0.00021921   -0.00026259   -0.00004024
     atom   21 type  1   force =    -0.00003228   -0.00001002   -0.00001002
     atom   22 type  1   force =     0.00027166   -0.00017178   -0.00017179
     atom   23 type  1   force =    -0.00004004   -0.00009425   -0.00010282
     atom   24 type  1   force =     0.00004048   -0.00034702   -0.00024720
     atom   25 type  1   force =    -0.00000781   -0.00010866    0.00000781
     atom   26 type  1   force =     0.00013312   -0.00030152   -0.00013311
     atom   27 type  1   force =    -0.00008782    0.00015511    0.00011522
     atom   28 type  1   force =     0.00011726   -0.00015594   -0.00008276
     atom   29 type  1   force =    -0.00008354    0.00016638    0.00001950
     atom   30 type  1   force =     0.00034559    0.00004630    0.00003335
     atom   31 type  1   force =    -0.00026953    0.00016133    0.00016134
     atom   32 type  1   force =     0.00003780    0.00000779    0.00000778
     atom   33 type  1   force =    -0.00034411   -0.00005579   -0.00003606
     atom   34 type  1   force =     0.00009502   -0.00016888   -0.00001489
     atom   35 type  1   force =    -0.00011522    0.00015511    0.00008782
     atom   36 type  1   force =     0.00008276   -0.00015595   -0.00011726
     atom   37 type  1   force =    -0.00013451    0.00029910    0.00013451
     atom   38 type  1   force =     0.00001015    0.00011378   -0.00001014
     atom   39 type  1   force =    -0.00005026    0.00034385    0.00024671
     atom   40 type  1   force =     0.00004151    0.00009160    0.00010345
     atom   41 type  1   force =    -0.00024237    0.00010724    0.00010725
     atom   42 type  1   force =     0.00045832   -0.00018678   -0.00018677
     atom   43 type  1   force =    -0.00020344    0.00025131    0.00005408
     atom   44 type  1   force =     0.00004023   -0.00026259   -0.00021921
     atom   45 type  1   force =    -0.00001950    0.00016638    0.00008354
     atom   46 type  1   force =    -0.00003334    0.00004630   -0.00034559
     atom   47 type  1   force =    -0.00024671    0.00034385    0.00005026
     atom   48 type  1   force =    -0.00010346    0.00009160   -0.00004152
     atom   49 type  1   force =    -0.00023120    0.00022991    0.00023120
     atom   50 type  1   force =    -0.00001705   -0.00006711    0.00001705
     atom   51 type  1   force =    -0.00019595    0.00043648    0.00019595
     atom   52 type  1   force =     0.00010830   -0.00025240   -0.00010830
     atom   53 type  1   force =    -0.00005725   -0.00001025   -0.00001025
     atom   54 type  1   force =     0.00022914   -0.00023190   -0.00023189
     atom   55 type  1   force =     0.00009425   -0.00010283    0.00004004
     atom   56 type  1   force =     0.00034702   -0.00024720   -0.00004049
     atom   57 type  1   force =     0.00005579   -0.00003606    0.00034411
     atom   58 type  1   force =     0.00016888   -0.00001489   -0.00009502
     atom   59 type  1   force =    -0.00025131    0.00005409    0.00020344
     atom   60 type  1   force =     0.00026259   -0.00021921   -0.00004024
[...]
     atom  236 type  1   force =     0.00006272   -0.00019126   -0.00033520
     atom  237 type  1   force =    -0.00005904    0.00022605    0.00005904
     atom  238 type  1   force =     0.00015017    0.00000024   -0.00015017
     atom  239 type  1   force =    -0.00001655    0.00030929    0.00030930
     atom  240 type  1   force =     0.00025584    0.00016388    0.00016387
     atom  241 type  1   force =    -0.00023120    0.00023120    0.00022992
     atom  242 type  1   force =    -0.00001706    0.00001706   -0.00006713
     atom  243 type  1   force =    -0.00030311    0.00030311   -0.00018140
     atom  244 type  1   force =     0.00008033   -0.00008033   -0.00025853
     atom  245 type  1   force =    -0.00037630    0.00037629   -0.00018124
     atom  246 type  1   force =    -0.00010817    0.00010816   -0.00037146
     atom  247 type  1   force =    -0.00030930    0.00030929    0.00001654
     atom  248 type  1   force =    -0.00016387    0.00016387   -0.00025583
     atom  249 type  1   force =    -0.00027001    0.00027001    0.00027000
     atom  250 type  1   force =    -0.00005444    0.00005443    0.00005443

     Total force =     0.005097     Total SCF correction =     0.000002

     Computing stress (Cartesian axis) and pressure

          total   stress  (Ry/bohr**3)                   (kbar)     P=   -4.14
  -0.00002812   0.00000246   0.00000246         -4.14      0.36      0.36
   0.00000246  -0.00002812  -0.00000246          0.36     -4.14     -0.36
   0.00000246  -0.00000246  -0.00002812          0.36     -0.36     -4.14

     Writing output data file b.save

     General routines

     Parallel routines

   This run was terminated on:   9:40:39  10Nov2020

   JOB DONE.