     Program PWSCF v.6.1 (svn rev. 13369) starts on 23Jan2021 at 11:14:35

     Current dimensions of program PWSCF are:
     Max number of different atomic species (ntypx) = 10
     Max number of k-points (npk) =  40000
     Max angular momentum in pseudopotentials (lmaxx) =  3

     IMPORTANT: XC functional enforced from input :
     Exchange-correlation      = PBE ( 1  4  3  4 0 0)
     Any further DFT definition will be discarded
     Please, verify this is what you really want

     bravais-lattice index     =            2
     lattice parameter (alat)  =      20.1103  a.u.
     unit-cell volume          =    2033.2657 (a.u.)^3
     number of atoms/cell      =           54
     number of atomic types    =            2
     number of electrons       =       214.00
     number of Kohn-Sham states=          150
     kinetic-energy cutoff     =      50.0000  Ry
     charge density cutoff     =     200.0000  Ry
     convergence threshold     =      1.0E-10
     mixing beta               =       0.7000
     number of iterations used =            8  local-TF  mixing
     Exchange-correlation      = PBE ( 1  4  3  4 0 0)
     nstep                     =           50

     celldm(1)=  20.110277  celldm(2)=   0.000000  celldm(3)=   0.000000
     celldm(4)=   0.000000  celldm(5)=   0.000000  celldm(6)=   0.000000

     crystal axes: (cart. coord. in units of alat)
               a(1) = (  -0.500000   0.000000   0.500000 )
               a(2) = (   0.000000   0.500000   0.500000 )
               a(3) = (  -0.500000   0.500000   0.000000 )

     reciprocal axes: (cart. coord. in units 2 pi/alat)
               b(1) = ( -1.000000 -1.000000  1.000000 )
               b(2) = (  1.000000  1.000000  1.000000 )
               b(3) = ( -1.000000  1.000000 -1.000000 )

     PseudoPot. # 1 for C  read from file:
     ~/PseudoPotential/upf/C_ONCV_PBE-1.0.upf
     MD5 check sum: Not computed, couldn't open file
     Pseudo is Norm-conserving, Zval =  4.0
     Generated using ONCVPSP code by D. R. Hamann
     Using radial grid of  602 points,  4 beta functions with:
                l(1) =   0
                l(2) =   0
                l(3) =   1
                l(4) =   1

[...]

     atomic species   valence    mass     pseudopotential
        C              4.00    12.01100     C ( 1.00)
        B              3.00    10.81100     B ( 1.00)

     No symmetry found

   Cartesian axes

     site n.     atom                  positions (alat units)
         1           B   tau(   1) = (   0.0000000   0.0000000   0.0000000  )
         2           B   tau(   2) = (  -0.0833333   0.0833333   0.0833333  )
         3           C   tau(   3) = (  -0.1666667   0.1666667   0.0000000  )
         4           C   tau(   4) = (  -0.2500000   0.2500000   0.0833333  )
         5           C   tau(   5) = (  -0.3333333   0.3333333   0.0000000  )
         6           C   tau(   6) = (  -0.4166667   0.4166667   0.0833333  )
         7           C   tau(   7) = (   0.0000000   0.1666667   0.1666667  )
         8           C   tau(   8) = (  -0.0833333   0.2500000   0.2500000  )
         9           C   tau(   9) = (  -0.1666667   0.3333333   0.1666667  )
        10           C   tau(  10) = (  -0.2500000   0.4166667   0.2500000  )
        11           C   tau(  11) = (  -0.3333333   0.5000000   0.1666667  )
        12           C   tau(  12) = (  -0.4166667   0.5833333   0.2500000  )
        13           C   tau(  13) = (   0.0000000   0.3333333   0.3333333  )
        14           C   tau(  14) = (  -0.0833333   0.4166667   0.4166667  )
        15           C   tau(  15) = (  -0.1666667   0.5000000   0.3333333  )
        16           C   tau(  16) = (  -0.2500000   0.5833333   0.4166667  )
        17           C   tau(  17) = (  -0.3333333   0.6666667   0.3333333  )
        18           C   tau(  18) = (  -0.4166667   0.7500000   0.4166667  )
        19           C   tau(  19) = (  -0.1666667   0.0000000   0.1666667  )
        20           C   tau(  20) = (  -0.2500000   0.0833333   0.2500000  )
        21           C   tau(  21) = (  -0.3333333   0.1666667   0.1666667  )
        22           C   tau(  22) = (  -0.4166667   0.2500000   0.2500000  )
        23           C   tau(  23) = (  -0.5000000   0.3333333   0.1666667  )
        24           C   tau(  24) = (  -0.5833333   0.4166667   0.2500000  )
        25           C   tau(  25) = (  -0.1666667   0.1666667   0.3333333  )
        26           C   tau(  26) = (  -0.2500000   0.2500000   0.4166667  )
        27           C   tau(  27) = (  -0.3333333   0.3333333   0.3333333  )
        28           C   tau(  28) = (  -0.4166667   0.4166667   0.4166667  )
        29           C   tau(  29) = (  -0.5000000   0.5000000   0.3333333  )
        30           C   tau(  30) = (  -0.5833333   0.5833333   0.4166667  )
        31           C   tau(  31) = (  -0.1666667   0.3333333   0.5000000  )
        32           C   tau(  32) = (  -0.2500000   0.4166667   0.5833333  )
        33           C   tau(  33) = (  -0.3333333   0.5000000   0.5000000  )
        34           C   tau(  34) = (  -0.4166667   0.5833333   0.5833333  )
        35           C   tau(  35) = (  -0.5000000   0.6666667   0.5000000  )
        36           C   tau(  36) = (  -0.5833333   0.7500000   0.5833333  )
        37           C   tau(  37) = (  -0.3333333   0.0000000   0.3333333  )
        38           C   tau(  38) = (  -0.4166667   0.0833333   0.4166667  )
        39           C   tau(  39) = (  -0.5000000   0.1666667   0.3333333  )
        40           C   tau(  40) = (  -0.5833333   0.2500000   0.4166667  )
        41           C   tau(  41) = (  -0.6666667   0.3333333   0.3333333  )
        42           C   tau(  42) = (  -0.7500000   0.4166667   0.4166667  )
        43           C   tau(  43) = (  -0.3333333   0.1666667   0.5000000  )
        44           C   tau(  44) = (  -0.4166667   0.2500000   0.5833333  )
        45           C   tau(  45) = (  -0.5000000   0.3333333   0.5000000  )
        46           C   tau(  46) = (  -0.5833333   0.4166667   0.5833333  )
        47           C   tau(  47) = (  -0.6666667   0.5000000   0.5000000  )
        48           C   tau(  48) = (  -0.7500000   0.5833333   0.5833333  )
        49           C   tau(  49) = (  -0.3333333   0.3333333   0.6666667  )
        50           C   tau(  50) = (  -0.4166667   0.4166667   0.7500000  )
        51           C   tau(  51) = (  -0.5000000   0.5000000   0.6666667  )
        52           C   tau(  52) = (  -0.5833333   0.5833333   0.7500000  )
        53           C   tau(  53) = (  -0.6666667   0.6666667   0.6666667  )
        54           C   tau(  54) = (  -0.7500000   0.7500000   0.7500000  )

     number of k points=     1
                       cart. coord. in units 2pi/alat
        k(    1) = (   0.0000000   0.0000000   0.0000000), wk =   2.0000000

     Initial potential from superposition of free atoms

     starting charge  213.60353, renormalised to  214.00000
     Starting wfc are random

     Self-consistent Calculation

     iteration #  1     ecut=    50.00 Ry     beta=0.70
     CG style diagonalization
     ethr =  1.00E-02,  avg # of iterations = 11.7

     total energy              =    -601.26423444 Ry
     Harris-Foulkes estimate   =    -602.59233976 Ry
     estimated scf accuracy    <       4.27874833 Ry

[...]

     negative rho (up, down):  1.507E-05 0.000E+00

[...]

     iteration #  3     ecut=    50.00 Ry     beta=0.70
     CG style diagonalization
     c_bands:  2 eigenvalues not converged
     ethr =  4.23E-04,  avg # of iterations =  4.8

[...]

     End of self-consistent calculation

          k = 0.0000 0.0000 0.0000 ( 12051 PWs)   bands (ev):

    -8.0177  -5.1285  -5.1170  -5.0529  -5.0529  -5.0210  -5.0210  -4.8802
    -4.6877  -4.0375  -4.0375  -3.9464  -3.9464  -3.7968  -3.0565  -0.6449
    -0.6449  -0.6224  -0.6030  -0.6030  -0.5181  -0.5181  -0.4948  -0.4324
    -0.4324   0.1061   0.8313   2.5090   2.5255   2.5255   2.5364   2.5364
     2.6745   2.6745   2.6746   2.7035   2.7035   3.2408   3.3024   3.9526
     3.9661   4.0088   4.0088   4.0089   4.0452   4.0452   4.0694   4.0816
     4.0816   4.1919   4.1919   4.2238   4.3191   4.3191   4.5800   4.7365
     4.7365   4.8440   5.0610   6.4684   6.4684   6.5216   6.5216   7.0936
     7.6777   8.1720   8.1782   8.1782   8.2140   8.2140   8.2393   8.2624
     8.3226   8.3226   8.3737   8.3737   8.3766   8.8255   8.8255   8.8588
     8.8620   8.8620   8.8999   8.9353   9.1829   9.1829   9.5249   9.5249
     9.6005  11.1684  11.1684  11.2096  11.2096  11.2110  11.2449  11.2525
    11.2525  11.3147  11.3147  11.3790  11.8845  11.8845  12.0694  12.0694
    12.5685  14.0372  14.0372  14.2403  17.8622  17.8622  17.8849  17.8849
    17.9318  18.1501  19.3699  19.3860  19.3860  19.9742  20.0402  20.0402
    20.0517  20.0517  20.1261  20.1261  20.1490  20.1749  20.1749  20.2944
    20.3594  21.4547  21.4547  21.4829  21.4829  21.5862  21.5872  21.9398
    21.9398  21.9571  21.9607  21.9607  21.9822  21.9822  22.0069  22.0523
    22.1424  22.1424  22.2504  22.2840  22.2840  22.3369

     highest occupied, lowest unoccupied level (ev):    14.0372   14.2403

!    total energy              =    -602.05035188 Ry
     Harris-Foulkes estimate   =    -602.05035188 Ry
     estimated scf accuracy    <          2.4E-11 Ry

     The total energy is the sum of the following terms:

     one-electron contribution =     217.96115763 Ry
     hartree contribution      =      52.50401080 Ry
     xc contribution           =    -190.86676084 Ry
     ewald contribution        =    -681.64875948 Ry

     convergence has been achieved in  15 iterations

     Forces acting on atoms (cartesian axes, Ry/au):

     atom    1 type  2   force =     0.14963522   -0.14963504   -0.14963524
     atom    2 type  2   force =    -0.14963494    0.14963524    0.14963555
     atom    3 type  1   force =     0.01016113   -0.01016113   -0.09546142
     atom    4 type  1   force =    -0.02726715    0.02726708    0.03412270
     atom    5 type  1   force =     0.02726713   -0.02726717   -0.03412254
     atom    6 type  1   force =    -0.01016110    0.01016112    0.09546150
     atom    7 type  1   force =     0.09546139   -0.01016126   -0.01016117
     atom    8 type  1   force =    -0.03412254    0.02726709    0.02726702
     atom    9 type  1   force =     0.01502348   -0.01781185   -0.01502360
     atom   10 type  1   force =    -0.01567618    0.02686747    0.01567620
     atom   11 type  1   force =     0.01964743   -0.03026402   -0.01482367
     atom   12 type  1   force =    -0.01482355    0.03026396    0.01964742
     atom   13 type  1   force =     0.03412257   -0.02726708   -0.02726713
     atom   14 type  1   force =    -0.09546137    0.01016127    0.01016123
     atom   15 type  1   force =     0.01482355   -0.03026397   -0.01964749
     atom   16 type  1   force =    -0.01964747    0.03026401    0.01482370
     atom   17 type  1   force =     0.01567619   -0.02686752   -0.01567630
     atom   18 type  1   force =    -0.01502353    0.01781181    0.01502351
     atom   19 type  1   force =     0.01016124   -0.09546136   -0.01016122
[...]
   0.001543594   0.500317521   0.500317520
  -0.500317522   0.500317522  -0.001543594

ATOMIC_POSITIONS (crystal)
B       -0.009927577  -0.009927596  -0.009927587
B        0.093260927   0.093260924   0.093260911
C       -0.004655067  -0.004655061   0.339457984
C        0.084044760   0.084044762   0.418187911
C       -0.000711427  -0.000711430   0.665145423
C        0.087988403   0.087988397   0.743875342
C       -0.004655068   0.339457989  -0.004655068
C        0.084044760   0.418187912   0.084044761
C       -0.000378151   0.333428105   0.333428105
C        0.083208998   0.417352302   0.417352304
C        0.000350437   0.334267337   0.664571794
C        0.082982898   0.418761541   0.749065991
C       -0.000711429   0.665145423  -0.000711426
C        0.087988401   0.743875348   0.087988399
C        0.000350434   0.664571794   0.334267341
C        0.082982895   0.749065998   0.418761538
C        0.000124334   0.665981033   0.665981028
C        0.083711483   0.749905228   0.749905230
C        0.339457985  -0.004655064  -0.004655071
C        0.418187910   0.084044762   0.084044760
C        0.333428102  -0.000378148   0.333428104
C        0.417352303   0.083208998   0.417352302
C        0.334267343   0.000350433   0.664571793
C        0.418761540   0.082982897   0.749065992
C        0.333428103   0.333428105  -0.000378150
C        0.417352302   0.417352299   0.083209002
C        0.333395171   0.333395170   0.333395172
C        0.416937530   0.416937532   0.416937531
C        0.333263413   0.333263414   0.666781755
C        0.416789028   0.416789026   0.749916041
C        0.334267341   0.664571791   0.000350437
C        0.418761538   0.749065997   0.082982894
C        0.333263412   0.666781760   0.333263411
C        0.416789024   0.749916044   0.416789026
C        0.333417293   0.666544306   0.666544306
C        0.416551578   0.750069917   0.750069919
C        0.665145423  -0.000711429  -0.000711425
C        0.743875353   0.087988398   0.087988401
C        0.664571795   0.000350435   0.334267340
C        0.749065991   0.082982900   0.418761539
C        0.665981031   0.000124334   0.665981031
C        0.749905230   0.083711480   0.749905231
C        0.664571793   0.334267337   0.000350441
C        0.749065991   0.418761543   0.082982898
C        0.666781754   0.333263416   0.333263416
C        0.749916039   0.416789025   0.416789031
C        0.666544307   0.333417288   0.666544310
C        0.750069920   0.416551573   0.750069924
C        0.665981030   0.665981036   0.000124333
C        0.749905228   0.749905229   0.083711486
C        0.666544304   0.666544306   0.333417295
C        0.750069919   0.750069919   0.416551579
C        0.666395802   0.666395800   0.666395804
C        0.749938161   0.749938163   0.749938162
End final coordinates

     A final scf calculation at the relaxed structure.
     The G-vectors are recalculated for the final unit cell
     Results may differ from those at the preceding step.

     bravais-lattice index     =            2
     lattice parameter (alat)  =      20.1103  a.u.
     unit-cell volume          =    2046.5693 (a.u.)^3
     number of atoms/cell      =           54
     number of atomic types    =            2
     number of electrons       =       214.00
     number of Kohn-Sham states=          150
     kinetic-energy cutoff     =      50.0000  Ry
     charge density cutoff     =     200.0000  Ry
     convergence threshold     =      1.0E-12
     mixing beta               =       0.7000
     number of iterations used =            8  local-TF  mixing
     Exchange-correlation      = PBE ( 1  4  3  4 0 0)

     celldm(1)=  20.110277  celldm(2)=   0.000000  celldm(3)=   0.000000
     celldm(4)=   0.000000  celldm(5)=   0.000000  celldm(6)=   0.000000

     crystal axes: (cart. coord. in units of alat)
               a(1) = (  -0.500318  -0.001544   0.500318 )
               a(2) = (   0.001544   0.500318   0.500318 )
               a(3) = (  -0.500318   0.500318  -0.001544 )

     reciprocal axes: (cart. coord. in units 2 pi/alat)
               b(1) = ( -0.997831 -0.994752  0.997831 )
               b(2) = (  0.994752  0.997831  0.997831 )
               b(3) = ( -0.997831  0.997831 -0.994752 )

[...]

     PseudoPot. # 2 for B  read from file:
     ~/PseudoPotential/upf/B_ONCV_PBE-1.0.upf
     MD5 check sum: Not computed, couldn't open file
     Pseudo is Norm-conserving, Zval =  3.0
     Generated using ONCVPSP code by D. R. Hamann
     Using radial grid of  602 points,  4 beta functions with:
                l(1) =   0
                l(2) =   0
                l(3) =   1
                l(4) =   1

     atomic species   valence    mass     pseudopotential
        C              4.00    12.01100     C ( 1.00)
        B              3.00    10.81100     B ( 1.00)

     No symmetry found

   Cartesian axes

     site n.     atom                  positions (alat units)
         1           B   tau(   1) = (   0.0099186  -0.0099186  -0.0099186  )
         2           B   tau(   2) = (  -0.0931762   0.0931762   0.0931762  )
         3           C   tau(   3) = (  -0.1675150   0.1675150  -0.0051820  )
         4           C   tau(   4) = (  -0.2511461   0.2511461   0.0834526  )
         5           C   tau(   5) = (  -0.3324291   0.3324291  -0.0017386  )
         6           C   tau(   6) = (  -0.4160602   0.4160602   0.0868960  )
         7           C   tau(   7) = (   0.0051820   0.1675150   0.1675150  )
         8           C   tau(   8) = (  -0.0834526   0.2511461   0.2511461  )
         9           C   tau(   9) = (  -0.1661160   0.3336404   0.1661160  )
        10           C   tau(  10) = (  -0.2497954   0.4174889   0.2497954  )
        11           C   tau(  11) = (  -0.3321563   0.4997362   0.1663893  )
        12           C   tau(  12) = (  -0.4156422   0.5841565   0.2498753  )
        13           C   tau(  13) = (   0.0017386   0.3324291   0.3324291  )
        14           C   tau(  14) = (  -0.0868960   0.4160602   0.4160602  )
        15           C   tau(  15) = (  -0.1663893   0.4997362   0.3321563  )
        16           C   tau(  16) = (  -0.2498753   0.5841565   0.4156422  )
        17           C   tau(  17) = (  -0.3322362   0.6664038   0.3322362  )
        18           C   tau(  18) = (  -0.4159155   0.7502522   0.4159155  )
        19           C   tau(  19) = (  -0.1675149  -0.0051820   0.1675150  )
        20           C   tau(  20) = (  -0.2511461   0.0834526   0.2511461  )
        21           C   tau(  21) = (  -0.3336404   0.1661161   0.1661160  )
        22           C   tau(  22) = (  -0.4174889   0.2497954   0.2497954  )
        23           C   tau(  23) = (  -0.4997362   0.3321563   0.1663893  )
        24           C   tau(  24) = (  -0.5841565   0.4156422   0.2498753  )
        25           C   tau(  25) = (  -0.1661160   0.1661161   0.3336404  )
        26           C   tau(  26) = (  -0.2497954   0.2497954   0.4174889  )
        27           C   tau(  27) = (  -0.3330923   0.3330923   0.3330923  )
        28           C   tau(  28) = (  -0.4165587   0.4165587   0.4165587  )
        29           C   tau(  29) = (  -0.4998257   0.4998257   0.3324458  )
        30           C   tau(  30) = (  -0.5830796   0.5830796   0.4158961  )
        31           C   tau(  31) = (  -0.1663893   0.3321563   0.4997362  )
        32           C   tau(  32) = (  -0.2498753   0.4156422   0.5841565  )
        33           C   tau(  33) = (  -0.3324458   0.4998257   0.4998257  )
        34           C   tau(  34) = (  -0.4158961   0.5830796   0.5830796  )
        35           C   tau(  35) = (  -0.4992694   0.6664529   0.4992694  )
        36           C   tau(  36) = (  -0.5825234   0.7499033   0.5825234  )
        37           C   tau(  37) = (  -0.3324291  -0.0017386   0.3324291  )
        38           C   tau(  38) = (  -0.4160602   0.0868960   0.4160602  )
        39           C   tau(  39) = (  -0.4997362   0.1663893   0.3321563  )
        40           C   tau(  40) = (  -0.5841565   0.2498753   0.4156422  )
        41           C   tau(  41) = (  -0.6664038   0.3322362   0.3322362  )
        42           C   tau(  42) = (  -0.7502522   0.4159155   0.4159155  )
        43           C   tau(  43) = (  -0.3321563   0.1663893   0.4997362  )
        44           C   tau(  44) = (  -0.4156422   0.2498753   0.5841565  )
        45           C   tau(  45) = (  -0.4998257   0.3324458   0.4998257  )
        46           C   tau(  46) = (  -0.5830796   0.4158961   0.5830796  )
        47           C   tau(  47) = (  -0.6664529   0.4992694   0.4992694  )
        48           C   tau(  48) = (  -0.7499033   0.5825234   0.5825234  )
        49           C   tau(  49) = (  -0.3322362   0.3322362   0.6664038  )
        50           C   tau(  50) = (  -0.4159155   0.4159155   0.7502522  )
        51           C   tau(  51) = (  -0.4992694   0.4992694   0.6664529  )
        52           C   tau(  52) = (  -0.5825234   0.5825234   0.7499033  )
        53           C   tau(  53) = (  -0.6657903   0.6657903   0.6657903  )
        54           C   tau(  54) = (  -0.7492568   0.7492568   0.7492568  )

     number of k points=     1
                       cart. coord. in units 2pi/alat
        k(    1) = (   0.0000000   0.0000000   0.0000000), wk =   2.0000000

     Initial potential from superposition of free atoms

     starting charge  213.60353, renormalised to  214.00000
     Starting wfc are random

     Writing output data file b.save

     Self-consistent Calculation

[...]

     iteration # 12     ecut=    50.00 Ry     beta=0.70
     CG style diagonalization
     c_bands:  1 eigenvalues not converged
     ethr =  1.51E-13,  avg # of iterations =  5.7

[...]

     total energy              =    -602.17777626 Ry
     Harris-Foulkes estimate   =    -602.17777626 Ry
     estimated scf accuracy    <          2.3E-12 Ry

     iteration # 15     ecut=    50.00 Ry     beta=0.70
     CG style diagonalization
     ethr =  1.00E-13,  avg # of iterations =  3.0

     End of self-consistent calculation

          k = 0.0000 0.0000 0.0000 ( 12135 PWs)   bands (ev):

    -8.0427  -5.1668  -5.1668  -5.1633  -5.1384  -5.0327  -5.0327  -4.8732
    -4.6789  -4.0896  -4.0896  -4.0461  -4.0461  -3.8405  -3.0290  -0.7108
    -0.7108  -0.6639  -0.6639  -0.6420  -0.6391  -0.5695  -0.5695  -0.5621
    -0.5621   0.0601   0.8388   2.4554   2.4898   2.4898   2.4954   2.4954
     2.5092   2.5092   2.5171   2.6188   2.6188   3.1585   3.2008   3.9081
     3.9556   3.9590   3.9590   3.9975   3.9975   4.0175   4.0175   4.0333
     4.0582   4.0651   4.0651   4.0830   4.1500   4.1500   4.4668   4.7528
     4.7528   4.8473   5.2346   6.3624   6.3624   6.4001   6.4001   7.0199
     7.7288   8.0188   8.0366   8.0366   8.1084   8.1419   8.1419   8.2060
     8.2786   8.2786   8.3326   8.3326   8.4392   8.6980   8.7041   8.7160
     8.7160   8.7968   8.7968   8.8222   9.1484   9.1484   9.3723   9.3723
     9.7874  11.0064  11.0064  11.0620  11.0765  11.0927  11.0927  11.2415
    11.2415  11.2459  11.2530  11.2530  11.6200  11.6200  11.8968  11.8968
    12.9617  13.6432  13.6432  15.3645  17.6634  17.7546  17.7546  17.8137
    17.8137  18.0183  19.0927  19.3585  19.3585  19.6583  19.8294  19.8294
    19.9424  19.9424  19.9499  19.9710  19.9710  20.1510  20.1774  20.1774
    20.2110  21.2259  21.2765  21.2765  21.4089  21.4089  21.4092  21.6392
    21.6392  21.8120  21.8120  21.8135  21.8135  21.8579  21.8613  21.9645
    22.0000  22.0000  22.0468  22.1535  22.1535  22.1937

     highest occupied, lowest unoccupied level (ev):    13.6432   15.3645

!    total energy              =    -602.17777626 Ry
     Harris-Foulkes estimate   =    -602.17777626 Ry
     estimated scf accuracy    <          9.0E-14 Ry

     The total energy is the sum of the following terms:

     one-electron contribution =     213.03634378 Ry
     hartree contribution      =      54.25102638 Ry
     xc contribution           =    -190.70737057 Ry
     ewald contribution        =    -678.75777586 Ry

     convergence has been achieved in  15 iterations

     Forces acting on atoms (cartesian axes, Ry/au):

     atom    1 type  2   force =     0.00065855   -0.00065841   -0.00065841
     atom    2 type  2   force =    -0.00065843    0.00065852    0.00065834
     atom    3 type  1   force =    -0.00053284    0.00053280    0.00041986
     atom    4 type  1   force =     0.00021689   -0.00021688    0.00007060
     atom    5 type  1   force =    -0.00021688    0.00021689   -0.00007059
     atom    6 type  1   force =     0.00053281   -0.00053280   -0.00041988
     atom    7 type  1   force =    -0.00041990    0.00053287    0.00053290
     atom    8 type  1   force =    -0.00007057   -0.00021690   -0.00021688
     atom    9 type  1   force =    -0.00037959    0.00070593    0.00037954
     atom   10 type  1   force =    -0.00002169   -0.00003031    0.00002171
     atom   11 type  1   force =    -0.00020755    0.00022405    0.00006604
     atom   12 type  1   force =     0.00006604   -0.00022403   -0.00020756
     atom   13 type  1   force =     0.00007058    0.00021690    0.00021688
     atom   14 type  1   force =     0.00041986   -0.00053290   -0.00053293
     atom   15 type  1   force =    -0.00006605    0.00022403    0.00020756
     atom   16 type  1   force =     0.00020754   -0.00022406   -0.00006604
     atom   17 type  1   force =     0.00002169    0.00003031   -0.00002171
     atom   18 type  1   force =     0.00037959   -0.00070593   -0.00037955
     atom   19 type  1   force =    -0.00053290    0.00041983    0.00053289
     atom   20 type  1   force =     0.00021687    0.00007059   -0.00021689
     atom   21 type  1   force =    -0.00070592    0.00037955    0.00037956
     atom   22 type  1   force =     0.00003031    0.00002169    0.00002170
     atom   23 type  1   force =    -0.00022398    0.00020756    0.00006602
     atom   24 type  1   force =     0.00022402   -0.00006602   -0.00020754
     atom   25 type  1   force =    -0.00037957    0.00037955    0.00070595
     atom   26 type  1   force =    -0.00002172    0.00002173   -0.00003030
     atom   27 type  1   force =    -0.00015571    0.00015570    0.00015571
     atom   28 type  1   force =    -0.00021080    0.00021081    0.00021081
     atom   29 type  1   force =    -0.00002825    0.00002824   -0.00007363
     atom   30 type  1   force =    -0.00025318    0.00025316    0.00009061
     atom   31 type  1   force =    -0.00006606    0.00020757    0.00022406
     atom   32 type  1   force =     0.00020753   -0.00006602   -0.00022403
     atom   33 type  1   force =     0.00007363    0.00002827    0.00002824
     atom   34 type  1   force =    -0.00009059    0.00025318    0.00025319
     atom   35 type  1   force =     0.00025319   -0.00009058   -0.00025319
     atom   36 type  1   force =     0.00002826    0.00007367   -0.00002825
     atom   37 type  1   force =    -0.00021688   -0.00007060    0.00021689
     atom   38 type  1   force =     0.00053288   -0.00041986   -0.00053288
     atom   39 type  1   force =    -0.00022403    0.00006603    0.00020756
     atom   40 type  1   force =     0.00022399   -0.00020758   -0.00006601
     atom   41 type  1   force =    -0.00003032   -0.00002169   -0.00002169
     atom   42 type  1   force =     0.00070592   -0.00037955   -0.00037956
     atom   43 type  1   force =    -0.00020755    0.00006599    0.00022404
     atom   44 type  1   force =     0.00006605   -0.00020759   -0.00022405
     atom   45 type  1   force =    -0.00002825   -0.00007367    0.00002825
     atom   46 type  1   force =    -0.00025317    0.00009058    0.00025321
     atom   47 type  1   force =     0.00009060   -0.00025319   -0.00025317
     atom   48 type  1   force =    -0.00007363   -0.00002827   -0.00002824
     atom   49 type  1   force =     0.00002170   -0.00002174    0.00003030
     atom   50 type  1   force =     0.00037958   -0.00037955   -0.00070595
     atom   51 type  1   force =     0.00025318   -0.00025317   -0.00009060
     atom   52 type  1   force =     0.00002826   -0.00002824    0.00007363
     atom   53 type  1   force =     0.00021080   -0.00021081   -0.00021080
     atom   54 type  1   force =     0.00015571   -0.00015570   -0.00015571

     Total force =     0.003852     Total SCF correction =     0.000000

     Computing stress (Cartesian axis) and pressure

          total   stress  (Ry/bohr**3)                   (kbar)     P=    3.69
   0.00002510   0.00001287   0.00001287          3.69      1.89      1.89
   0.00001287   0.00002510  -0.00001287          1.89      3.69     -1.89
   0.00001287  -0.00001287   0.00002510          1.89     -1.89      3.69

     Writing output data file b.save

     General routines

     Parallel routines

   This run was terminated on:  11:16:28  23Jan2021

   JOB DONE.