     Program PWSCF v.6.1 (svn rev. 13369) starts on 20Jan2021 at 17:21:33

     Current dimensions of program PWSCF are:
     Max number of different atomic species (ntypx) = 10
     Max number of k-points (npk) =  40000
     Max angular momentum in pseudopotentials (lmaxx) =  3

     IMPORTANT: XC functional enforced from input :
     Exchange-correlation      = PBE ( 1  4  3  4 0 0)
     Any further DFT definition will be discarded
     Please, verify this is what you really want

     bravais-lattice index     =            2
     lattice parameter (alat)  =      26.8137  a.u.
     unit-cell volume          =    4819.5928 (a.u.)^3
     number of atoms/cell      =          128
     number of atomic types    =            2
     number of electrons       =       510.00
     number of Kohn-Sham states=          300
     kinetic-energy cutoff     =      50.0000  Ry
     charge density cutoff     =     200.0000  Ry
     convergence threshold     =      1.0E-10
     mixing beta               =       0.7000
     number of iterations used =            8  local-TF  mixing
     Exchange-correlation      = PBE ( 1  4  3  4 0 0)
     nstep                     =           50

     celldm(1)=  26.813702  celldm(2)=   0.000000  celldm(3)=   0.000000
     celldm(4)=   0.000000  celldm(5)=   0.000000  celldm(6)=   0.000000

     crystal axes: (cart. coord. in units of alat)
               a(1) = (  -0.500000   0.000000   0.500000 )
               a(2) = (   0.000000   0.500000   0.500000 )
               a(3) = (  -0.500000   0.500000   0.000000 )

     reciprocal axes: (cart. coord. in units 2 pi/alat)
               b(1) = ( -1.000000 -1.000000  1.000000 )
               b(2) = (  1.000000  1.000000  1.000000 )
               b(3) = ( -1.000000  1.000000 -1.000000 )

     PseudoPot. # 1 for C  read from file:
     ~/PseudoPotential/upf/C_ONCV_PBE-1.0.upf
     MD5 check sum: Not computed, couldn't open file
     Pseudo is Norm-conserving, Zval =  4.0
     Generated using ONCVPSP code by D. R. Hamann
     Using radial grid of  602 points,  4 beta functions with:
                l(1) =   0
                l(2) =   0
                l(3) =   1
                l(4) =   1

[...]

     atomic species   valence    mass     pseudopotential
        C              4.00    12.01100     C ( 1.00)
        B              3.00    10.81100     B ( 1.00)

     No symmetry found

   Cartesian axes

     site n.     atom                  positions (alat units)
         1           B   tau(   1) = (   0.0000000   0.0000000   0.0000000  )
         2           B   tau(   2) = (  -0.0625000   0.0625000   0.0625000  )
         3           C   tau(   3) = (  -0.1250000   0.1250000   0.0000000  )
         4           C   tau(   4) = (  -0.1875000   0.1875000   0.0625000  )
         5           C   tau(   5) = (  -0.2500000   0.2500000   0.0000000  )
         6           C   tau(   6) = (  -0.3125000   0.3125000   0.0625000  )
         7           C   tau(   7) = (  -0.3750000   0.3750000   0.0000000  )
         8           C   tau(   8) = (  -0.4375000   0.4375000   0.0625000  )
         9           C   tau(   9) = (   0.0000000   0.1250000   0.1250000  )
        10           C   tau(  10) = (  -0.0625000   0.1875000   0.1875000  )
        11           C   tau(  11) = (  -0.1250000   0.2500000   0.1250000  )
        12           C   tau(  12) = (  -0.1875000   0.3125000   0.1875000  )
        13           C   tau(  13) = (  -0.2500000   0.3750000   0.1250000  )
        14           C   tau(  14) = (  -0.3125000   0.4375000   0.1875000  )
        15           C   tau(  15) = (  -0.3750000   0.5000000   0.1250000  )
        16           C   tau(  16) = (  -0.4375000   0.5625000   0.1875000  )
        17           C   tau(  17) = (   0.0000000   0.2500000   0.2500000  )
        18           C   tau(  18) = (  -0.0625000   0.3125000   0.3125000  )
        19           C   tau(  19) = (  -0.1250000   0.3750000   0.2500000  )
        20           C   tau(  20) = (  -0.1875000   0.4375000   0.3125000  )
        21           C   tau(  21) = (  -0.2500000   0.5000000   0.2500000  )
        22           C   tau(  22) = (  -0.3125000   0.5625000   0.3125000  )
        23           C   tau(  23) = (  -0.3750000   0.6250000   0.2500000  )
        24           C   tau(  24) = (  -0.4375000   0.6875000   0.3125000  )
        25           C   tau(  25) = (   0.0000000   0.3750000   0.3750000  )
        26           C   tau(  26) = (  -0.0625000   0.4375000   0.4375000  )
        27           C   tau(  27) = (  -0.1250000   0.5000000   0.3750000  )
        28           C   tau(  28) = (  -0.1875000   0.5625000   0.4375000  )
        29           C   tau(  29) = (  -0.2500000   0.6250000   0.3750000  )
        30           C   tau(  30) = (  -0.3125000   0.6875000   0.4375000  )
        31           C   tau(  31) = (  -0.3750000   0.7500000   0.3750000  )
        32           C   tau(  32) = (  -0.4375000   0.8125000   0.4375000  )
        33           C   tau(  33) = (  -0.1250000   0.0000000   0.1250000  )
        34           C   tau(  34) = (  -0.1875000   0.0625000   0.1875000  )
        35           C   tau(  35) = (  -0.2500000   0.1250000   0.1250000  )
        36           C   tau(  36) = (  -0.3125000   0.1875000   0.1875000  )
        37           C   tau(  37) = (  -0.3750000   0.2500000   0.1250000  )
        38           C   tau(  38) = (  -0.4375000   0.3125000   0.1875000  )
        39           C   tau(  39) = (  -0.5000000   0.3750000   0.1250000  )
        40           C   tau(  40) = (  -0.5625000   0.4375000   0.1875000  )
        41           C   tau(  41) = (  -0.1250000   0.1250000   0.2500000  )
        42           C   tau(  42) = (  -0.1875000   0.1875000   0.3125000  )
        43           C   tau(  43) = (  -0.2500000   0.2500000   0.2500000  )
        44           C   tau(  44) = (  -0.3125000   0.3125000   0.3125000  )
        45           C   tau(  45) = (  -0.3750000   0.3750000   0.2500000  )
        46           C   tau(  46) = (  -0.4375000   0.4375000   0.3125000  )
        47           C   tau(  47) = (  -0.5000000   0.5000000   0.2500000  )
        48           C   tau(  48) = (  -0.5625000   0.5625000   0.3125000  )
        49           C   tau(  49) = (  -0.1250000   0.2500000   0.3750000  )
        50           C   tau(  50) = (  -0.1875000   0.3125000   0.4375000  )
        51           C   tau(  51) = (  -0.2500000   0.3750000   0.3750000  )
        52           C   tau(  52) = (  -0.3125000   0.4375000   0.4375000  )
        53           C   tau(  53) = (  -0.3750000   0.5000000   0.3750000  )
        54           C   tau(  54) = (  -0.4375000   0.5625000   0.4375000  )
        55           C   tau(  55) = (  -0.5000000   0.6250000   0.3750000  )
        56           C   tau(  56) = (  -0.5625000   0.6875000   0.4375000  )
        57           C   tau(  57) = (  -0.1250000   0.3750000   0.5000000  )
        58           C   tau(  58) = (  -0.1875000   0.4375000   0.5625000  )
        59           C   tau(  59) = (  -0.2500000   0.5000000   0.5000000  )
        60           C   tau(  60) = (  -0.3125000   0.5625000   0.5625000  )
[...]
       114           C   tau( 114) = (  -0.4375000   0.3125000   0.6875000  )
       115           C   tau( 115) = (  -0.5000000   0.3750000   0.6250000  )
       116           C   tau( 116) = (  -0.5625000   0.4375000   0.6875000  )
       117           C   tau( 117) = (  -0.6250000   0.5000000   0.6250000  )
       118           C   tau( 118) = (  -0.6875000   0.5625000   0.6875000  )
       119           C   tau( 119) = (  -0.7500000   0.6250000   0.6250000  )
       120           C   tau( 120) = (  -0.8125000   0.6875000   0.6875000  )
       121           C   tau( 121) = (  -0.3750000   0.3750000   0.7500000  )
       122           C   tau( 122) = (  -0.4375000   0.4375000   0.8125000  )
       123           C   tau( 123) = (  -0.5000000   0.5000000   0.7500000  )
       124           C   tau( 124) = (  -0.5625000   0.5625000   0.8125000  )
       125           C   tau( 125) = (  -0.6250000   0.6250000   0.7500000  )
       126           C   tau( 126) = (  -0.6875000   0.6875000   0.8125000  )
       127           C   tau( 127) = (  -0.7500000   0.7500000   0.7500000  )
       128           C   tau( 128) = (  -0.8125000   0.8125000   0.8125000  )

     number of k points=     1
                       cart. coord. in units 2pi/alat
        k(    1) = (   0.0000000   0.0000000   0.0000000), wk =   2.0000000

     Initial potential from superposition of free atoms

     starting charge  509.08802, renormalised to  510.00000
     Starting wfc are random

     Self-consistent Calculation

     iteration #  1     ecut=    50.00 Ry     beta=0.70
     CG style diagonalization
     ethr =  1.00E-02,  avg # of iterations = 12.2

     total energy              =   -1443.60320529 Ry
     Harris-Foulkes estimate   =   -1446.35148091 Ry
     estimated scf accuracy    <       8.80450929 Ry

[...]

     negative rho (up, down):  4.006E-05 0.000E+00

[...]

     iteration #  4     ecut=    50.00 Ry     beta=0.70
     CG style diagonalization
     c_bands:  5 eigenvalues not converged
     ethr =  7.40E-06,  avg # of iterations =  5.9

[...]

     End of self-consistent calculation

          k = 0.0000 0.0000 0.0000 ( 28763 PWs)   bands (ev):

    -8.0704  -6.4350  -6.4035  -6.3902  -6.3902  -6.3438  -6.3438  -6.3128
    -6.1906  -5.7974  -5.7974  -5.7327  -5.7327  -5.7284  -5.2914  -3.5949
    -3.5949  -3.5926  -3.5926  -3.5780  -3.5761  -3.5449  -3.5449  -3.5217
    -3.5217  -3.4419  -3.2634  -2.2583  -2.2583  -2.2571  -2.2308  -2.0668
    -2.0510  -2.0496  -2.0496  -2.0471  -2.0471  -2.0251  -2.0251  -2.0108
    -2.0108  -2.0075  -2.0065  -2.0065  -1.9996  -1.9921  -1.9648  -1.9210
    -1.9210  -1.8262  -1.8262  -1.8199  -1.8199  -1.2885  -0.4705   0.0944
     0.1002   0.1002   0.1009   0.7451   0.7451   0.7686   0.7686   0.8228
     0.8763   1.5198   1.5198   1.5225   1.5225   1.5443   1.5638   1.5976
     1.5976   1.6117   1.6117   1.8708   2.0123   2.6567   2.6668   2.6668
     2.6692   2.6692   2.6737   2.6737   2.6791   2.6791   2.6947   2.6947
     2.6970   2.7318   2.7318   2.7398   2.7398   2.7406   2.8117   2.8256
     2.8256   2.9464   2.9464   3.4939   3.7361   4.8197   4.8197   4.8210
     4.8210   4.8214   4.8566   4.8819   4.8819   4.8837   4.8837   5.1211
     5.1289   5.1305   5.1441   5.1487   5.1487   5.1568   5.1568   5.2036
     5.2036   5.2690   5.2690   5.2929   5.3999   5.8743   5.8892   5.8892
     5.8947   5.8947   5.9249   5.9249   5.9373   5.9824   5.9879   5.9879
     6.0555   6.7219   6.7279   6.7445   6.7445   6.7477   6.7477   6.7534
     6.7595   6.7595   6.7716   6.7968   6.7968   6.7990   6.7990   6.8104
     6.8333   6.8333   6.8728   6.9012   6.9034   6.9298   6.9298   6.9332
     6.9332   6.9878   7.0324   7.0804   7.0804   7.0940   7.0940   7.2302
     7.2750   7.2750   7.3596   7.3994   7.3994   7.6393   7.7282   8.5988
     8.6016   8.6130   8.6130   8.6152   8.6152   8.6243   8.6243   8.6298
     8.6350   8.6350   8.6368   8.6820   8.6820   8.6831   8.6835   8.6835
[...]
        C              4.00    12.01100     C ( 1.00)
        B              3.00    10.81100     B ( 1.00)

     No symmetry found

   Cartesian axes

     site n.     atom                  positions (alat units)
         1           B   tau(   1) = (   0.0070874  -0.0070874  -0.0070874  )
         2           B   tau(   2) = (  -0.0693816   0.0693816   0.0693816  )
         3           C   tau(   3) = (  -0.1254584   0.1254584  -0.0036906  )
         4           C   tau(   4) = (  -0.1876893   0.1876893   0.0622885  )
         5           C   tau(   5) = (  -0.2493170   0.2493170  -0.0007693  )
         6           C   tau(   6) = (  -0.3116583   0.3116583   0.0623784  )
         7           C   tau(   7) = (  -0.3732901   0.3732901  -0.0006515  )
         8           C   tau(   8) = (  -0.4355200   0.4355200   0.0653314  )
         9           C   tau(   9) = (   0.0036906   0.1254584   0.1254584  )
        10           C   tau(  10) = (  -0.0622885   0.1876893   0.1876893  )
        11           C   tau(  11) = (  -0.1243498   0.2492673   0.1243498  )
        12           C   tau(  12) = (  -0.1868553   0.3117232   0.1868553  )
        13           C   tau(  13) = (  -0.2490227   0.3739993   0.1243960  )
        14           C   tau(  14) = (  -0.3111171   0.4364743   0.1871355  )
        15           C   tau(  15) = (  -0.3730160   0.4983247   0.1249609  )
        16           C   tau(  16) = (  -0.4353642   0.5613383   0.1873099  )
        17           C   tau(  17) = (   0.0007693   0.2493170   0.2493170  )
        18           C   tau(  18) = (  -0.0623784   0.3116583   0.3116583  )
        19           C   tau(  19) = (  -0.1243960   0.3739993   0.2490227  )
        20           C   tau(  20) = (  -0.1871355   0.4364743   0.3111171  )
        21           C   tau(  21) = (  -0.2489709   0.4985925   0.2489709  )
        22           C   tau(  22) = (  -0.3113532   0.5610681   0.3113532  )
        23           C   tau(  23) = (  -0.3731854   0.6231835   0.2492093  )
        24           C   tau(  24) = (  -0.4359193   0.6856586   0.3113031  )
        25           C   tau(  25) = (   0.0006515   0.3732901   0.3732901  )
        26           C   tau(  26) = (  -0.0653314   0.4355200   0.4355200  )
        27           C   tau(  27) = (  -0.1249609   0.4983247   0.3730160  )
        28           C   tau(  28) = (  -0.1873099   0.5613383   0.4353642  )
        29           C   tau(  29) = (  -0.2492093   0.6231835   0.3731854  )
        30           C   tau(  30) = (  -0.3113031   0.6856586   0.4359193  )
        31           C   tau(  31) = (  -0.3734676   0.7479400   0.3734676  )
        32           C   tau(  32) = (  -0.4359737   0.8103982   0.4359737  )
        33           C   tau(  33) = (  -0.1254584  -0.0036906   0.1254584  )
        34           C   tau(  34) = (  -0.1876893   0.0622885   0.1876893  )
        35           C   tau(  35) = (  -0.2492673   0.1243498   0.1243498  )
        36           C   tau(  36) = (  -0.3117232   0.1868553   0.1868553  )
        37           C   tau(  37) = (  -0.3739993   0.2490227   0.1243960  )
        38           C   tau(  38) = (  -0.4364743   0.3111171   0.1871355  )
        39           C   tau(  39) = (  -0.4983247   0.3730160   0.1249609  )
        40           C   tau(  40) = (  -0.5613383   0.4353642   0.1873099  )
        41           C   tau(  41) = (  -0.1243498   0.1243498   0.2492673  )
        42           C   tau(  42) = (  -0.1868553   0.1868553   0.3117232  )
        43           C   tau(  43) = (  -0.2491300   0.2491300   0.2491300  )
        44           C   tau(  44) = (  -0.3115991   0.3115991   0.3115991  )
        45           C   tau(  45) = (  -0.3738050   0.3738050   0.2491107  )
        46           C   tau(  46) = (  -0.4362124   0.4362124   0.3114277  )
        47           C   tau(  47) = (  -0.4985051   0.4985051   0.2488156  )
        48           C   tau(  48) = (  -0.5607781   0.5607781   0.3112049  )
        49           C   tau(  49) = (  -0.1243960   0.2490227   0.3739993  )
        50           C   tau(  50) = (  -0.1871355   0.3111171   0.4364743  )
        51           C   tau(  51) = (  -0.2491107   0.3738050   0.3738050  )
        52           C   tau(  52) = (  -0.3114277   0.4362124   0.4362124  )
        53           C   tau(  53) = (  -0.3736784   0.4984930   0.3736784  )
        54           C   tau(  54) = (  -0.4360206   0.5608294   0.4360206  )
        55           C   tau(  55) = (  -0.4983319   0.6231516   0.3735259  )
        56           C   tau(  56) = (  -0.5606778   0.6854822   0.4358568  )
        57           C   tau(  57) = (  -0.1249609   0.3730160   0.4983247  )
        58           C   tau(  58) = (  -0.1873099   0.4353642   0.5613383  )
        59           C   tau(  59) = (  -0.2488156   0.4985051   0.4985051  )
        60           C   tau(  60) = (  -0.3112049   0.5607781   0.5607781  )
[...]
       114           C   tau( 114) = (  -0.4359193   0.3113031   0.6856586  )
       115           C   tau( 115) = (  -0.4983319   0.3735259   0.6231516  )
       116           C   tau( 116) = (  -0.5606778   0.4358568   0.6854822  )
       117           C   tau( 117) = (  -0.6229871   0.4981808   0.6229871  )
       118           C   tau( 118) = (  -0.6853293   0.5605164   0.6853293  )
       119           C   tau( 119) = (  -0.7475826   0.6227957   0.6227957  )
       120           C   tau( 120) = (  -0.8098992   0.6852019   0.6852019  )
       121           C   tau( 121) = (  -0.3734676   0.3734676   0.7479400  )
       122           C   tau( 122) = (  -0.4359737   0.4359737   0.8103982  )
       123           C   tau( 123) = (  -0.4982325   0.4982325   0.7478063  )
       124           C   tau( 124) = (  -0.5605055   0.5605055   0.8101963  )
       125           C   tau( 125) = (  -0.6227957   0.6227957   0.7475826  )
       126           C   tau( 126) = (  -0.6852019   0.6852019   0.8098992  )
       127           C   tau( 127) = (  -0.7474100   0.7474100   0.7474100  )
       128           C   tau( 128) = (  -0.8098792   0.8098792   0.8098792  )

     number of k points=     1
                       cart. coord. in units 2pi/alat
        k(    1) = (   0.0000000   0.0000000   0.0000000), wk =   2.0000000

     Initial potential from superposition of free atoms

     starting charge  509.08802, renormalised to  510.00000
     Starting wfc are random

     Writing output data file b.save

     Self-consistent Calculation

[...]

     iteration #  3     ecut=    50.00 Ry     beta=0.70
     CG style diagonalization
     ethr =  3.65E-04,  avg # of iterations =  3.6

[...]

     total energy              =   -1445.15675121 Ry
     Harris-Foulkes estimate   =   -1445.15675121 Ry
     estimated scf accuracy    <          2.1E-12 Ry

     iteration # 19     ecut=    50.00 Ry     beta=0.70
     CG style diagonalization
     c_bands:  3 eigenvalues not converged
     ethr =  1.00E-13,  avg # of iterations =  3.2

     End of self-consistent calculation

          k = 0.0000 0.0000 0.0000 ( 28631 PWs)   bands (ev):

    -8.0271  -6.3634  -6.3560  -6.3560  -6.3535  -6.2925  -6.2925  -6.2587
    -6.1077  -5.7549  -5.7549  -5.7191  -5.7191  -5.6988  -5.2784  -3.5402
    -3.5377  -3.5377  -3.5346  -3.5346  -3.5295  -3.5076  -3.5076  -3.4630
    -3.4630  -3.3614  -3.1712  -2.1679  -2.1679  -2.1632  -2.1267  -1.9945
    -1.9828  -1.9828  -1.9759  -1.9759  -1.9728  -1.9566  -1.9550  -1.9550
    -1.9511  -1.9511  -1.9399  -1.9310  -1.9310  -1.9248  -1.9181  -1.8827
    -1.8827  -1.8219  -1.8219  -1.7962  -1.7962  -1.2915  -0.4108   0.1269
     0.1459   0.1459   0.1931   0.8242   0.8242   0.8244   0.8244   0.8935
     0.9818   1.5998   1.5998   1.6074   1.6078   1.6078   1.6341   1.6797
     1.6797   1.6815   1.6815   1.9749   2.1199   2.7139   2.7139   2.7144
     2.7300   2.7300   2.7565   2.7565   2.7610   2.7616   2.7668   2.7668
     2.7675   2.7692   2.8161   2.8161   2.8188   2.8188   2.8582   2.8582
     2.8887   2.9930   2.9930   3.5483   3.9158   4.8832   4.8832   4.9061
     4.9064   4.9064   4.9064   4.9387   4.9387   4.9683   4.9683   5.1542
     5.1795   5.2014   5.2034   5.2051   5.2051   5.2222   5.2222   5.2555
     5.2555   5.3559   5.3559   5.4504   5.4551   5.9335   5.9557   5.9557
     5.9671   5.9671   5.9864   5.9864   6.0350   6.0901   6.1094   6.1094
     6.1796   6.8032   6.8156   6.8156   6.8207   6.8249   6.8327   6.8327
     6.8429   6.8493   6.8493   6.8611   6.8731   6.8731   6.8988   6.8988
     6.9084   6.9084   6.9458   6.9792   6.9792   6.9945   6.9945   7.0119
     7.0235   7.0764   7.0873   7.0873   7.1456   7.1502   7.1502   7.2726
     7.3742   7.3742   7.3835   7.5120   7.5120   7.8466   7.8939   8.6622
     8.6622   8.6627   8.6980   8.7019   8.7019   8.7148   8.7246   8.7246
     8.7401   8.7461   8.7461   8.7469   8.7469   8.7603   8.7682   8.7863
     8.7863   8.7963   8.9471   8.9471   8.9897   8.9897   9.0714   9.2196
     9.2196   9.2523   9.2523   9.3487   9.4716   9.4946   9.5040   9.5040
     9.5275   9.5275   9.5753   9.6877   9.6877   9.8352   9.8352   9.8616
    10.0521  10.6049  10.6311  10.6395  10.6395  10.6711  10.6711  10.6777
    10.7037  10.7037  10.7421  10.7421  10.7737  10.8503  10.9091  10.9091
    11.0680  11.0680  11.1223  11.1223  11.4643  11.8871  11.8871  11.9053
    11.9083  11.9232  11.9232  11.9846  11.9846  12.0032  12.0105  12.0105
    12.1637  12.1637  12.3737  12.3737  13.4047  13.8025  13.8025  14.9673
    18.2419  18.2546  18.2546  18.3108  18.3169  18.3169  18.5623  18.5623
    18.6263  18.6427  18.6427  18.6456  19.3841  19.4923  19.4923  19.8094
    19.8255  19.8307  19.8307  19.8520  19.8520  19.8736  19.8736  19.9005
    19.9073  19.9073  19.9114  19.9114  19.9193  19.9396  19.9466  19.9837
    19.9837  20.0586  20.0586  20.1363  20.2034  20.2034  20.3005  21.5782
    21.5782  21.6140  21.6140  21.6611

     highest occupied, lowest unoccupied level (ev):    13.8025   14.9673

!    total energy              =   -1445.15675121 Ry
     Harris-Foulkes estimate   =   -1445.15675121 Ry
     estimated scf accuracy    <          4.3E-13 Ry

     The total energy is the sum of the following terms:

     one-electron contribution =     520.47609094 Ry
     hartree contribution      =     124.64294175 Ry
     xc contribution           =    -455.80163261 Ry
     ewald contribution        =   -1634.47415129 Ry

     convergence has been achieved in  19 iterations

     Forces acting on atoms (cartesian axes, Ry/au):

     atom    1 type  2   force =     0.00002648   -0.00002652   -0.00002642
     atom    2 type  2   force =    -0.00003571    0.00003562    0.00003555
     atom    3 type  1   force =     0.00000009   -0.00000009   -0.00005751
     atom    4 type  1   force =     0.00004576   -0.00004575   -0.00007798
     atom    5 type  1   force =     0.00002249   -0.00002249   -0.00001883
     atom    6 type  1   force =    -0.00003853    0.00003854   -0.00000130
     atom    7 type  1   force =    -0.00005624    0.00005624    0.00007173
     atom    8 type  1   force =    -0.00000782    0.00000781    0.00005570
     atom    9 type  1   force =     0.00005753   -0.00000007   -0.00000008
     atom   10 type  1   force =     0.00007798   -0.00004575   -0.00004575
     atom   11 type  1   force =     0.00006282   -0.00002654   -0.00006282
     atom   12 type  1   force =     0.00015106   -0.00011618   -0.00015105
     atom   13 type  1   force =    -0.00000564   -0.00003469    0.00003166
     atom   14 type  1   force =     0.00003700   -0.00010440   -0.00010023
     atom   15 type  1   force =    -0.00004561    0.00003018    0.00001261
     atom   16 type  1   force =     0.00001155   -0.00002918   -0.00004146
     atom   17 type  1   force =     0.00001883   -0.00002249   -0.00002249
     atom   18 type  1   force =     0.00000131    0.00003853    0.00003853
     atom   19 type  1   force =    -0.00003167   -0.00003470    0.00000565
     atom   20 type  1   force =     0.00010022   -0.00010440   -0.00003700
     atom   21 type  1   force =    -0.00004681    0.00004164    0.00004681
     atom   22 type  1   force =     0.00004863   -0.00005180   -0.00004862
     atom   23 type  1   force =    -0.00009479    0.00010122    0.00003524
     atom   24 type  1   force =     0.00003785    0.00004001   -0.00000058
     atom   25 type  1   force =    -0.00007174    0.00005625    0.00005624
     atom   26 type  1   force =    -0.00005567    0.00000781    0.00000784
     atom   27 type  1   force =    -0.00001262    0.00003018    0.00004560
     atom   28 type  1   force =     0.00004147   -0.00002919   -0.00001154
     atom   29 type  1   force =    -0.00003524    0.00010122    0.00009479
     atom   30 type  1   force =     0.00000058    0.00004000   -0.00003785
     atom   31 type  1   force =    -0.00014153    0.00011744    0.00014153
     atom   32 type  1   force =    -0.00005838    0.00003024    0.00005838
     atom   33 type  1   force =     0.00000007   -0.00005753   -0.00000007
     atom   34 type  1   force =     0.00004575   -0.00007797   -0.00004575
     atom   35 type  1   force =     0.00002654   -0.00006282   -0.00006282
     atom   36 type  1   force =     0.00011618   -0.00015105   -0.00015105
     atom   37 type  1   force =     0.00003469    0.00000564    0.00003166
     atom   38 type  1   force =     0.00010439   -0.00003699   -0.00010023
     atom   39 type  1   force =    -0.00003018    0.00004560    0.00001262
     atom   40 type  1   force =     0.00002919   -0.00001154   -0.00004146
     atom   41 type  1   force =     0.00006282   -0.00006282   -0.00002654
     atom   42 type  1   force =     0.00015106   -0.00015105   -0.00011617
     atom   43 type  1   force =     0.00014896   -0.00014896   -0.00014896
     atom   44 type  1   force =     0.00018926   -0.00018926   -0.00018926
     atom   45 type  1   force =    -0.00002914    0.00002914    0.00008295
     atom   46 type  1   force =     0.00013548   -0.00013547   -0.00001008
     atom   47 type  1   force =    -0.00001052    0.00001051    0.00007918
     atom   48 type  1   force =     0.00014434   -0.00014433    0.00003799
     atom   49 type  1   force =    -0.00003167    0.00000564   -0.00003469
     atom   50 type  1   force =     0.00010022   -0.00003700   -0.00010439
     atom   51 type  1   force =    -0.00008295    0.00002913    0.00002914
     atom   52 type  1   force =     0.00001009   -0.00013548   -0.00013548
     atom   53 type  1   force =    -0.00013678    0.00016248    0.00013677
     atom   54 type  1   force =     0.00004634   -0.00005473   -0.00004634
     atom   55 type  1   force =    -0.00008535    0.00007487    0.00008628
     atom   56 type  1   force =     0.00009304   -0.00008284   -0.00007522
     atom   57 type  1   force =    -0.00001263    0.00004560    0.00003015
     atom   58 type  1   force =     0.00004147   -0.00001155   -0.00002918
     atom   59 type  1   force =    -0.00007918    0.00001052    0.00001052
     atom   60 type  1   force =    -0.00003799   -0.00014433   -0.00014434
[...]
     atom  114 type  1   force =     0.00003785   -0.00000057    0.00004000
     atom  115 type  1   force =    -0.00008535    0.00008628    0.00007488
     atom  116 type  1   force =     0.00009305   -0.00007521   -0.00008284
     atom  117 type  1   force =    -0.00005270    0.00005709    0.00005270
     atom  118 type  1   force =     0.00013440   -0.00016282   -0.00013439
     atom  119 type  1   force =    -0.00001357    0.00013372    0.00013372
     atom  120 type  1   force =     0.00008500   -0.00003331   -0.00003332
     atom  121 type  1   force =    -0.00014154    0.00014153    0.00011743
     atom  122 type  1   force =    -0.00005838    0.00005838    0.00003024
     atom  123 type  1   force =    -0.00014442    0.00014442   -0.00003526
     atom  124 type  1   force =     0.00001274   -0.00001273   -0.00007955
     atom  125 type  1   force =    -0.00013372    0.00013371    0.00001356
     atom  126 type  1   force =     0.00003332   -0.00003332   -0.00008500
     atom  127 type  1   force =    -0.00018294    0.00018294    0.00018294
     atom  128 type  1   force =    -0.00014145    0.00014146    0.00014145

     Total force =     0.001590     Total SCF correction =     0.000002

     Computing stress (Cartesian axis) and pressure

          total   stress  (Ry/bohr**3)                   (kbar)     P=   -1.83
  -0.00001244   0.00000473   0.00000473         -1.83      0.70      0.70
   0.00000473  -0.00001244  -0.00000473          0.70     -1.83     -0.70
   0.00000473  -0.00000473  -0.00001244          0.70     -0.70     -1.83

     Writing output data file b.save

     General routines

     Parallel routines

   This run was terminated on:  17:39:39  20Jan2021

   JOB DONE.