     Program PWSCF v.6.1 (svn rev. 13369) starts on 10Jan2021 at 10:11: 5

     Current dimensions of program PWSCF are:
     Max number of different atomic species (ntypx) = 10
     Max number of k-points (npk) =  40000
     Max angular momentum in pseudopotentials (lmaxx) =  3

     IMPORTANT: XC functional enforced from input :
     Exchange-correlation      = PBE ( 1  4  3  4 0 0)
     Any further DFT definition will be discarded
     Please, verify this is what you really want

     bravais-lattice index     =            2
     lattice parameter (alat)  =      33.5171  a.u.
     unit-cell volume          =    9413.2672 (a.u.)^3
     number of atoms/cell      =          250
     number of atomic types    =            2
     number of electrons       =       998.00
     number of Kohn-Sham states=          600
     kinetic-energy cutoff     =      50.0000  Ry
     charge density cutoff     =     200.0000  Ry
     convergence threshold     =      1.0E-10
     mixing beta               =       0.7000
     number of iterations used =            8  local-TF  mixing
     Exchange-correlation      = PBE ( 1  4  3  4 0 0)
     nstep                     =           50

     celldm(1)=  33.517128  celldm(2)=   0.000000  celldm(3)=   0.000000
     celldm(4)=   0.000000  celldm(5)=   0.000000  celldm(6)=   0.000000

     crystal axes: (cart. coord. in units of alat)
               a(1) = (  -0.500000   0.000000   0.500000 )
               a(2) = (   0.000000   0.500000   0.500000 )
               a(3) = (  -0.500000   0.500000   0.000000 )

     reciprocal axes: (cart. coord. in units 2 pi/alat)
               b(1) = ( -1.000000 -1.000000  1.000000 )
               b(2) = (  1.000000  1.000000  1.000000 )
               b(3) = ( -1.000000  1.000000 -1.000000 )

     PseudoPot. # 1 for C  read from file:
     ~/PseudoPotential/upf/C_ONCV_PBE-1.0.upf
     MD5 check sum: Not computed, couldn't open file
     Pseudo is Norm-conserving, Zval =  4.0
     Generated using ONCVPSP code by D. R. Hamann
     Using radial grid of  602 points,  4 beta functions with:
                l(1) =   0
                l(2) =   0
                l(3) =   1
                l(4) =   1

[...]

     atomic species   valence    mass     pseudopotential
        C              4.00    12.01100     C ( 1.00)
        B              3.00    10.81100     B ( 1.00)

     No symmetry found

   Cartesian axes

     site n.     atom                  positions (alat units)
         1           C   tau(   1) = (   0.0000000   0.0000000   0.0000000  )
         2           C   tau(   2) = (  -0.0500000   0.0500000   0.0500000  )
         3           C   tau(   3) = (  -0.1000000   0.1000000   0.0000000  )
         4           C   tau(   4) = (  -0.1500000   0.1500000   0.0500000  )
         5           C   tau(   5) = (  -0.2000000   0.2000000   0.0000000  )
         6           C   tau(   6) = (  -0.2500000   0.2500000   0.0500000  )
         7           C   tau(   7) = (  -0.3000000   0.3000000   0.0000000  )
         8           C   tau(   8) = (  -0.3500000   0.3500000   0.0500000  )
         9           C   tau(   9) = (  -0.4000000   0.4000000   0.0000000  )
        10           C   tau(  10) = (  -0.4500000   0.4500000   0.0500000  )
        11           C   tau(  11) = (   0.0000000   0.1000000   0.1000000  )
        12           C   tau(  12) = (  -0.0500000   0.1500000   0.1500000  )
        13           C   tau(  13) = (  -0.1000000   0.2000000   0.1000000  )
        14           C   tau(  14) = (  -0.1500000   0.2500000   0.1500000  )
        15           C   tau(  15) = (  -0.2000000   0.3000000   0.1000000  )
        16           C   tau(  16) = (  -0.2500000   0.3500000   0.1500000  )
        17           C   tau(  17) = (  -0.3000000   0.4000000   0.1000000  )
        18           C   tau(  18) = (  -0.3500000   0.4500000   0.1500000  )
        19           C   tau(  19) = (  -0.4000000   0.5000000   0.1000000  )
        20           C   tau(  20) = (  -0.4500000   0.5500000   0.1500000  )
        21           C   tau(  21) = (   0.0000000   0.2000000   0.2000000  )
        22           C   tau(  22) = (  -0.0500000   0.2500000   0.2500000  )
        23           C   tau(  23) = (  -0.1000000   0.3000000   0.2000000  )
        24           C   tau(  24) = (  -0.1500000   0.3500000   0.2500000  )
        25           C   tau(  25) = (  -0.2000000   0.4000000   0.2000000  )
        26           C   tau(  26) = (  -0.2500000   0.4500000   0.2500000  )
        27           C   tau(  27) = (  -0.3000000   0.5000000   0.2000000  )
        28           C   tau(  28) = (  -0.3500000   0.5500000   0.2500000  )
        29           C   tau(  29) = (  -0.4000000   0.6000000   0.2000000  )
        30           C   tau(  30) = (  -0.4500000   0.6500000   0.2500000  )
        31           C   tau(  31) = (   0.0000000   0.3000000   0.3000000  )
        32           C   tau(  32) = (  -0.0500000   0.3500000   0.3500000  )
        33           C   tau(  33) = (  -0.1000000   0.4000000   0.3000000  )
        34           C   tau(  34) = (  -0.1500000   0.4500000   0.3500000  )
        35           C   tau(  35) = (  -0.2000000   0.5000000   0.3000000  )
        36           C   tau(  36) = (  -0.2500000   0.5500000   0.3500000  )
        37           C   tau(  37) = (  -0.3000000   0.6000000   0.3000000  )
        38           C   tau(  38) = (  -0.3500000   0.6500000   0.3500000  )
        39           C   tau(  39) = (  -0.4000000   0.7000000   0.3000000  )
        40           C   tau(  40) = (  -0.4500000   0.7500000   0.3500000  )
        41           C   tau(  41) = (   0.0000000   0.4000000   0.4000000  )
        42           C   tau(  42) = (  -0.0500000   0.4500000   0.4500000  )
        43           C   tau(  43) = (  -0.1000000   0.5000000   0.4000000  )
        44           C   tau(  44) = (  -0.1500000   0.5500000   0.4500000  )
        45           C   tau(  45) = (  -0.2000000   0.6000000   0.4000000  )
        46           C   tau(  46) = (  -0.2500000   0.6500000   0.4500000  )
        47           C   tau(  47) = (  -0.3000000   0.7000000   0.4000000  )
        48           C   tau(  48) = (  -0.3500000   0.7500000   0.4500000  )
        49           C   tau(  49) = (  -0.4000000   0.8000000   0.4000000  )
        50           C   tau(  50) = (  -0.4500000   0.8500000   0.4500000  )
        51           C   tau(  51) = (  -0.1000000   0.0000000   0.1000000  )
        52           C   tau(  52) = (  -0.1500000   0.0500000   0.1500000  )
        53           C   tau(  53) = (  -0.2000000   0.1000000   0.1000000  )
        54           C   tau(  54) = (  -0.2500000   0.1500000   0.1500000  )
        55           C   tau(  55) = (  -0.3000000   0.2000000   0.1000000  )
        56           C   tau(  56) = (  -0.3500000   0.2500000   0.1500000  )
        57           C   tau(  57) = (  -0.4000000   0.3000000   0.1000000  )
        58           C   tau(  58) = (  -0.4500000   0.3500000   0.1500000  )
        59           C   tau(  59) = (  -0.5000000   0.4000000   0.1000000  )
        60           C   tau(  60) = (  -0.5500000   0.4500000   0.1500000  )
[...]
       236           C   tau( 236) = (  -0.6500000   0.5500000   0.7500000  )
       237           C   tau( 237) = (  -0.7000000   0.6000000   0.7000000  )
       238           C   tau( 238) = (  -0.7500000   0.6500000   0.7500000  )
       239           C   tau( 239) = (  -0.8000000   0.7000000   0.7000000  )
       240           C   tau( 240) = (  -0.8500000   0.7500000   0.7500000  )
       241           C   tau( 241) = (  -0.4000000   0.4000000   0.8000000  )
       242           C   tau( 242) = (  -0.4500000   0.4500000   0.8500000  )
       243           C   tau( 243) = (  -0.5000000   0.5000000   0.8000000  )
       244           C   tau( 244) = (  -0.5500000   0.5500000   0.8500000  )
       245           C   tau( 245) = (  -0.6000000   0.6000000   0.8000000  )
       246           C   tau( 246) = (  -0.6500000   0.6500000   0.8500000  )
       247           C   tau( 247) = (  -0.7000000   0.7000000   0.8000000  )
       248           C   tau( 248) = (  -0.7500000   0.7500000   0.8500000  )
       249           C   tau( 249) = (  -0.8000000   0.8000000   0.8000000  )
       250           C   tau( 250) = (  -0.8500000   0.8500000   0.8500000  )

     number of k points=     1
                       cart. coord. in units 2pi/alat
        k(    1) = (   0.0000000   0.0000000   0.0000000), wk =   2.0000000

     Initial potential from superposition of free atoms

     starting charge  996.23812, renormalised to  998.00000
     Starting wfc are random

     Self-consistent Calculation

     iteration #  1     ecut=    50.00 Ry     beta=0.70
     Davidson diagonalization with overlap
     ethr =  1.00E-02,  avg # of iterations = 11.0

     total energy              =   -2834.77638937 Ry
     Harris-Foulkes estimate   =   -2839.64024279 Ry
     estimated scf accuracy    <      15.60385924 Ry

[...]

     End of self-consistent calculation

          k = 0.0000 0.0000 0.0000 ( 56233 PWs)   bands (ev):

    -8.0775  -7.0318  -7.0064  -6.9983  -6.9983  -6.9620  -6.9620  -6.9519
    -6.8702  -6.6126  -6.6126  -6.5876  -6.5653  -6.5653  -6.2998  -5.1670
    -5.1670  -5.1641  -5.1641  -5.1593  -5.1550  -5.1355  -5.1355  -5.1122
    -5.1122  -5.0886  -4.9554  -4.1290  -4.1253  -4.1253  -4.1231  -4.1231
    -4.1202  -4.1002  -4.1002  -4.0935  -4.0896  -4.0896  -4.0854  -4.0826
    -4.0826  -4.0804  -4.0680  -4.0604  -4.0604  -4.0068  -4.0068  -3.9710
    -3.9710  -3.9283  -3.9005  -3.7666  -3.7594  -3.7142  -3.7142  -3.7076
    -3.7076  -3.5839  -3.1820  -2.2825  -2.2825  -2.2721  -2.2721  -2.2585
    -2.2187  -1.6925  -1.6915  -1.6744  -1.6736  -1.6736  -1.6690  -1.6690
    -1.6565  -1.6565  -1.6562  -1.6562  -1.6320  -1.6308  -1.6065  -1.6065
    -1.5983  -1.5983  -1.5842  -1.5842  -1.5662  -1.4993  -1.4993  -1.4329
    -1.3722  -1.1033  -1.1013  -1.1013  -1.0990  -1.0934  -1.0934  -1.0896
    -1.0787  -1.0674  -1.0674  -1.0609  -1.0609  -1.0530  -1.0530  -1.0498
    -1.0498  -1.0278  -0.9994  -0.9531  -0.9531  -0.9348  -0.9348  -0.5651
    -0.0294   0.7854   0.7918   0.7918   0.7982   0.7982   0.8109   0.8300
     0.8300   0.8349   0.8349   0.9247   1.0193   1.2300   1.2362   1.2362
     1.2411   1.2411   1.2417   1.2453   1.2453   1.2475   1.2475   1.2482
     1.2501   1.2748   1.2748   1.2812   1.2901   1.2901   1.3067   1.3226
     1.3226   1.3407   1.3697   1.3697   1.3736   1.4034   1.4155   1.4155
     1.4195   1.4195   1.4343   1.4853   1.4853   1.5496   1.5496   1.7820
     1.8947   2.0744   2.0785   2.0785   2.1222   2.1651   2.1651   2.2582
     2.4145   3.3181   3.3187   3.3187   3.3236   3.3236   3.3240   3.3325
     3.3399   3.3474   3.3474   3.3539   3.3539   3.3878   3.3878   3.3899
     3.3899   3.4138   3.4360   3.4728   3.4728   3.4869   3.4869   3.7783
     3.8074   4.1277   4.1277   4.1289   4.1289   4.2597   4.2917   4.6777
     4.6777   4.6779   4.6787   4.6787   4.6813   4.6815   4.6824   4.6824
     4.6865   4.6865   4.6894   4.7091   4.7161   4.7161   4.7207   4.7207
     4.7238   4.7238   4.7276   4.7316   4.7316   4.7405   4.7474   4.7474
[...]
        35           C   tau(  35) = (  -0.1989523   0.4983141   0.2987713  )
        36           C   tau(  36) = (  -0.2484661   0.5485090   0.3486793  )
        37           C   tau(  37) = (  -0.2986885   0.5979831   0.2986885  )
        38           C   tau(  38) = (  -0.3485660   0.6477311   0.3485660  )
        39           C   tau(  39) = (  -0.3983650   0.6975269   0.2986472  )
        40           C   tau(  40) = (  -0.4481903   0.7473190   0.3484896  )
        41           C   tau(  41) = (   0.0002532   0.3985600   0.3985600  )
        42           C   tau(  42) = (  -0.0495697   0.4483861   0.4483861  )
        43           C   tau(  43) = (  -0.0993775   0.4982031   0.3985041  )
        44           C   tau(  44) = (  -0.1491681   0.5480493   0.4483278  )
        45           C   tau(  45) = (  -0.1987971   0.5980618   0.3983989  )
        46           C   tau(  46) = (  -0.2486346   0.6479035   0.4482975  )
        47           C   tau(  47) = (  -0.2986472   0.6975269   0.3983650  )
        48           C   tau(  48) = (  -0.3484896   0.7473190   0.4481903  )
        49           C   tau(  49) = (  -0.3983115   0.7971251   0.3983115  )
        50           C   tau(  50) = (  -0.4481344   0.8469500   0.4481344  )
        51           C   tau(  51) = (  -0.0996025  -0.0000648   0.0996025  )
        52           C   tau(  52) = (  -0.1494490   0.0497577   0.1494490  )
        53           C   tau(  53) = (  -0.1991873   0.0995560   0.0995560  )
        54           C   tau(  54) = (  -0.2490924   0.1493939   0.1493939  )
        55           C   tau(  55) = (  -0.2988660   0.1992620   0.0995164  )
        56           C   tau(  56) = (  -0.3487548   0.2490565   0.1493253  )
        57           C   tau(  57) = (  -0.3985663   0.2988691   0.0994341  )
        58           C   tau(  58) = (  -0.4483922   0.3486756   0.1492643  )
        59           C   tau(  59) = (  -0.4982031   0.3985041   0.0993775  )
        60           C   tau(  60) = (  -0.5480493   0.4483278   0.1491681  )
[...]
       236           C   tau( 236) = (  -0.6474382   0.5478306   0.7471789  )
       237           C   tau( 237) = (  -0.6973003   0.5976075   0.6973003  )
       238           C   tau( 238) = (  -0.7471372   0.6475109   0.7471372  )
       239           C   tau( 239) = (  -0.7969345   0.6972524   0.6972524  )
       240           C   tau( 240) = (  -0.8467598   0.7470955   0.7470955  )
       241           C   tau( 241) = (  -0.3983115   0.3983115   0.7971251  )
       242           C   tau( 242) = (  -0.4481344   0.4481344   0.8469500  )
       243           C   tau( 243) = (  -0.4979588   0.4979588   0.7970733  )
       244           C   tau( 244) = (  -0.5477732   0.5477732   0.8468936  )
       245           C   tau( 245) = (  -0.5975911   0.5975911   0.7969994  )
       246           C   tau( 246) = (  -0.6474179   0.6474179   0.8468422  )
       247           C   tau( 247) = (  -0.6972524   0.6972524   0.7969345  )
       248           C   tau( 248) = (  -0.7470955   0.7470955   0.8467598  )
       249           C   tau( 249) = (  -0.7968746   0.7968746   0.7968746  )
       250           C   tau( 250) = (  -0.8467050   0.8467050   0.8467050  )

     number of k points=     1
                       cart. coord. in units 2pi/alat
        k(    1) = (   0.0000000   0.0000000   0.0000000), wk =   2.0000000

     Initial potential from superposition of free atoms

     starting charge  996.23812, renormalised to  998.00000
     Starting wfc are random

     Writing output data file b.save

     Self-consistent Calculation

     iteration #  1     ecut=    50.00 Ry     beta=0.70
     Davidson diagonalization with overlap
     c_bands:  3 eigenvalues not converged
     ethr =  1.00E-06,  avg # of iterations = 40.0

[...]

     total energy              =   -2834.41925956 Ry
     Harris-Foulkes estimate   =   -2834.41925956 Ry
     estimated scf accuracy    <          1.4E-12 Ry

     iteration # 19     ecut=    50.00 Ry     beta=0.70
     Davidson diagonalization with overlap
     ethr =  1.00E-13,  avg # of iterations =  1.0

     End of self-consistent calculation

          k = 0.0000 0.0000 0.0000 ( 55657 PWs)   bands (ev):

    -8.0136  -6.9362  -6.9326  -6.9294  -6.9294  -6.8940  -6.8940  -6.8884
    -6.7804  -6.5456  -6.5456  -6.5307  -6.5220  -6.5220  -6.2978  -5.0894
    -5.0870  -5.0870  -5.0839  -5.0833  -5.0833  -5.0677  -5.0677  -5.0414
    -5.0414  -5.0087  -4.8683  -4.0291  -4.0238  -4.0238  -4.0169  -4.0169
    -4.0110  -4.0109  -4.0109  -4.0051  -4.0051  -4.0027  -4.0007  -3.9983
    -3.9956  -3.9902  -3.9902  -3.9876  -3.9876  -3.9495  -3.9495  -3.9121
    -3.9121  -3.8490  -3.7973  -3.6789  -3.6770  -3.6738  -3.6738  -3.6404
    -3.6404  -3.5408  -3.1288  -2.1914  -2.1914  -2.1912  -2.1912  -2.1646
    -2.1173  -1.5524  -1.5503  -1.5437  -1.5437  -1.5344  -1.5344  -1.5312
    -1.5312  -1.5290  -1.5262  -1.5242  -1.5242  -1.5029  -1.5027  -1.5027
    -1.5019  -1.5019  -1.4876  -1.4849  -1.4849  -1.4361  -1.4361  -1.3289
    -1.2478  -0.9810  -0.9810  -0.9795  -0.9795  -0.9728  -0.9728  -0.9701
    -0.9684  -0.9649  -0.9649  -0.9648  -0.9623  -0.9582  -0.9511  -0.9395
    -0.9395  -0.9382  -0.9382  -0.8955  -0.8955  -0.8793  -0.8793  -0.5324
     0.0557   0.9161   0.9204   0.9204   0.9254   0.9254   0.9320   0.9479
     0.9479   0.9491   0.9491   1.0390   1.1342   1.3372   1.3461   1.3477
     1.3477   1.3556   1.3556   1.3575   1.3614   1.3614   1.3666   1.3666
     1.3711   1.3711   1.3716   1.3816   1.3917   1.3917   1.3938   1.3938
     1.3994   1.4412   1.4682   1.4726   1.4726   1.5142   1.5161   1.5167
     1.5167   1.5211   1.5211   1.5712   1.5712   1.6307   1.6307   1.8818
     2.0092   2.1678   2.1716   2.1716   2.2168   2.2411   2.2411   2.3350
     2.5715   3.4776   3.4804   3.4804   3.4820   3.4820   3.4868   3.4868
     3.4879   3.4897   3.4924   3.4973   3.4973   3.5090   3.5090   3.5189
     3.5232   3.5232   3.5388   3.5713   3.5713   3.5974   3.5974   3.9018
     3.9663   4.2600   4.2600   4.2677   4.2677   4.4064   4.4306   4.7759
     4.7762   4.7826   4.7826   4.7908   4.7908   4.7957   4.7984   4.7984
     4.8085   4.8087   4.8087   4.8315   4.8321   4.8321   4.8375   4.8375
     4.8455   4.8493   4.8515   4.8515   4.8538   4.8538   4.8563   4.8731
     4.8731   4.8738   4.8827   4.8827   4.9172   4.9172   4.9219   4.9629
     4.9629   5.1356   5.1985   5.2467   5.2574   5.2596   5.2596   5.2597
     5.2687   5.2687   5.2755   5.2820   5.2853   5.2853   5.2881   5.2881
     5.2926   5.2926   5.2942   5.2942   5.3472   5.3472   5.4445   5.5255
     5.5255   5.6112   5.8542   6.7053   6.7053   6.7129   6.7177   6.7177
     6.7240   6.7391   6.7391   6.7498   6.7498   6.8489   6.9426   7.2107
     7.2215   7.2215   7.2231   7.2234   7.2234   7.2410   7.2410   7.2415
     7.2440   7.2458   7.2458   7.2468   7.2497   7.2546   7.2546   7.2571
     7.2571   7.2599   7.2626   7.2626   7.2628   7.2628   7.2685   7.2884
     7.2884   7.2921   7.2921   7.2987   7.3034   7.3046   7.3204   7.3204
     7.3204   7.3338   7.3353   7.3353   7.3422   7.3422   7.3471   7.3471
     7.3981   7.4295   7.4295   7.4727   7.4727   7.5432   7.6299   7.6407
     7.6495   7.6495   7.6546   7.6546   7.6678   7.6678   7.6797   7.6800
     7.6800   7.6808   7.6854   7.6854   7.7064   7.7064   7.7071   7.7186
     7.7880   7.7880   7.8225   7.8261   7.8261   7.8578   7.8943   7.9400
     7.9474   7.9474   7.9686   7.9686   7.9712   7.9834   8.0707   8.0707
     8.1802   8.1802   8.2820   8.8260   8.8260   8.8330   8.8388   8.8489
     8.8489   8.8886   8.8932   8.9892   8.9892   8.9924   8.9987   8.9987
     9.0007   9.0029   9.0168   9.0199   9.0222   9.0222   9.0223   9.0223
     9.0280   9.0280   9.0457   9.0457   9.0851   9.1053   9.1053   9.1226
     9.1226   9.2414   9.2615   9.2633   9.2633   9.2675   9.2768   9.2768
     9.2888   9.2958   9.2962   9.2962   9.2970   9.2970   9.3022   9.3022
     9.3051   9.3058   9.3104   9.3104   9.3347   9.4375   9.4375   9.5098
     9.5098   9.5970   9.6074   9.8348   9.8348   9.8366   9.8446   9.8446
     9.8446   9.8489   9.8555   9.8609   9.8609   9.8644   9.8644   9.8649
     9.8822   9.8974   9.8974   9.9039   9.9039   9.9172  10.0698  10.0698
    10.1272  10.1272  10.2981  10.4800  10.4900  10.4949  10.4949  10.4970
    10.4970  10.5383  10.5776  10.5776  10.6418  10.6471  10.6471  10.7483
    10.7483  10.7513  10.7513  10.9006  11.0091  11.0730  11.0730  11.0938
    11.0980  11.0980  11.1150  11.1231  11.1231  11.1247  11.1465  11.1465
    11.2796  11.2796  11.2937  11.2937  11.5182  11.7506  11.7562  11.7710
    11.7710  11.7780  11.7893  11.7893  11.8771  11.8771  11.9188  11.9188
    12.1807  12.4203  12.4203  12.4325  12.4350  12.4369  12.4369  12.4631
    12.4631  12.4736  12.4851  12.4851  12.5504  12.5504  12.7068  12.7068
    13.6203  13.8505  13.8505  14.8389  18.0577  18.0713  18.0713  18.0816
    18.0816  18.1102  18.6286  18.6328  18.6328  18.6838  18.6853  18.6853
    19.1990  19.2221  19.2221  19.2590  19.2614  19.2614  19.2822  19.2822
    19.3109  19.3109  19.3168  19.3177  19.4836  19.5379  19.5379  19.9967
    19.9967  20.0035  20.0043  20.0043  20.0115  20.0137  20.0137  20.0250
    20.0295  20.0312  20.0312  20.0375  20.0391  20.0391  20.0428  20.0428
    20.0449  20.0595  20.0649  20.0743  20.0743  20.0779  20.0779  20.1809
    20.1809  20.1889  20.2296  20.2296  20.3047  21.1336  21.1555  21.1555
    21.1565  21.1565  21.1572  21.1723  21.1723  21.1781  21.1781  21.1817
    21.1950  21.2118  21.2118  21.2170  21.2170  21.2194  21.2238  21.2299
    21.2299  21.2353  21.2353  21.2627  21.2762  21.2762  21.2778  21.2787
    21.2787  21.2826  21.2880  21.2984  21.2984  21.3052  21.3052  21.3231
    21.3231  21.3243  21.3612  21.4861  21.4861  21.7444  21.7860  21.7860

     highest occupied, lowest unoccupied level (ev):    13.8505   14.8389

!    total energy              =   -2834.41925956 Ry
     Harris-Foulkes estimate   =   -2834.41925956 Ry
     estimated scf accuracy    <          3.0E-13 Ry

     The total energy is the sum of the following terms:

     one-electron contribution =    1027.87432107 Ry
     hartree contribution      =     240.59770528 Ry
     xc contribution           =    -892.84321135 Ry
     ewald contribution        =   -3210.04807457 Ry

     convergence has been achieved in  19 iterations

     Forces acting on atoms (cartesian axes, Ry/au):

     atom    1 type  1   force =    -0.00002199    0.00002199    0.00002199
     atom    2 type  1   force =     0.00020653   -0.00020652   -0.00020653
     atom    3 type  1   force =    -0.00005576    0.00005575    0.00023173
     atom    4 type  1   force =     0.00015468   -0.00015468    0.00000706
     atom    5 type  1   force =    -0.00014131    0.00014129    0.00029893
     atom    6 type  1   force =     0.00000776   -0.00000775    0.00012331
     atom    7 type  1   force =    -0.00018779    0.00018778    0.00014461
     atom    8 type  1   force =     0.00001420   -0.00001419   -0.00006763
     atom    9 type  1   force =    -0.00009650    0.00009649   -0.00000548
     atom   10 type  1   force =     0.00013143   -0.00013141   -0.00021413
     atom   11 type  1   force =    -0.00023173    0.00005575    0.00005576
     atom   12 type  1   force =    -0.00000707   -0.00015468   -0.00015468
     atom   13 type  1   force =    -0.00030693    0.00001159    0.00030693
     atom   14 type  1   force =    -0.00016589   -0.00025040    0.00016589
     atom   15 type  1   force =    -0.00024826    0.00004132    0.00033949
     atom   16 type  1   force =    -0.00010765   -0.00004976    0.00009668
     atom   17 type  1   force =    -0.00010440    0.00022256    0.00000447
     atom   18 type  1   force =     0.00010106    0.00001161   -0.00026393
     atom   19 type  1   force =    -0.00012196    0.00017911   -0.00013386
     atom   20 type  1   force =     0.00019466   -0.00005973   -0.00033491
     atom   21 type  1   force =    -0.00029893    0.00014130    0.00014130
     atom   22 type  1   force =    -0.00012331   -0.00000775   -0.00000776
     atom   23 type  1   force =    -0.00033950    0.00004132    0.00024826
     atom   24 type  1   force =    -0.00009668   -0.00004976    0.00010764
     atom   25 type  1   force =    -0.00016071    0.00028077    0.00016071
     atom   26 type  1   force =    -0.00001235   -0.00003281    0.00001235
     atom   27 type  1   force =     0.00006331    0.00035353   -0.00004389
     atom   28 type  1   force =     0.00016432   -0.00007994   -0.00001895
     atom   29 type  1   force =    -0.00015634    0.00012179    0.00008277
     atom   30 type  1   force =     0.00014851   -0.00009347   -0.00011444
     atom   31 type  1   force =    -0.00014460    0.00018778    0.00018779
     atom   32 type  1   force =     0.00006763   -0.00001419   -0.00001420
     atom   33 type  1   force =    -0.00000447    0.00022256    0.00010439
     atom   34 type  1   force =     0.00026394    0.00001161   -0.00010106
     atom   35 type  1   force =     0.00004389    0.00035353   -0.00006331
     atom   36 type  1   force =     0.00001895   -0.00007994   -0.00016432
     atom   37 type  1   force =     0.00010936    0.00037009   -0.00010937
     atom   38 type  1   force =     0.00037886    0.00018492   -0.00037886
     atom   39 type  1   force =    -0.00020039    0.00034248    0.00005606
     atom   40 type  1   force =     0.00011425    0.00013205   -0.00017637
     atom   41 type  1   force =     0.00000549    0.00009648    0.00009650
     atom   42 type  1   force =     0.00021413   -0.00013142   -0.00013142
     atom   43 type  1   force =     0.00013384    0.00017912    0.00012195
     atom   44 type  1   force =     0.00033492   -0.00005973   -0.00019466
     atom   45 type  1   force =    -0.00008278    0.00012178    0.00015634
     atom   46 type  1   force =     0.00011443   -0.00009347   -0.00014851
     atom   47 type  1   force =    -0.00005606    0.00034247    0.00020040
     atom   48 type  1   force =     0.00017637    0.00013206   -0.00011425
     atom   49 type  1   force =    -0.00013068    0.00021858    0.00013068
     atom   50 type  1   force =     0.00009200   -0.00000038   -0.00009201
     atom   51 type  1   force =    -0.00005576    0.00023173    0.00005577
     atom   52 type  1   force =     0.00015468    0.00000706   -0.00015469
     atom   53 type  1   force =    -0.00001159    0.00030693    0.00030693
     atom   54 type  1   force =     0.00025041    0.00016589    0.00016589
     atom   55 type  1   force =    -0.00004134    0.00024826    0.00033950
     atom   56 type  1   force =     0.00004977    0.00010765    0.00009669
     atom   57 type  1   force =    -0.00022256    0.00010439    0.00000447
     atom   58 type  1   force =    -0.00001161   -0.00010105   -0.00026393
     atom   59 type  1   force =    -0.00017911    0.00012193   -0.00013385
     atom   60 type  1   force =     0.00005973   -0.00019465   -0.00033491
[...]
     atom  236 type  1   force =     0.00025147   -0.00003525   -0.00034360
     atom  237 type  1   force =     0.00016681    0.00025131   -0.00016681
     atom  238 type  1   force =     0.00030916   -0.00001722   -0.00030916
     atom  239 type  1   force =     0.00000258    0.00014876    0.00014876
     atom  240 type  1   force =     0.00023753   -0.00005775   -0.00005774
     atom  241 type  1   force =    -0.00013068    0.00013068    0.00021858
     atom  242 type  1   force =     0.00009200   -0.00009200   -0.00000039
     atom  243 type  1   force =    -0.00001233    0.00001233    0.00007493
     atom  244 type  1   force =     0.00018830   -0.00018829   -0.00015445
     atom  245 type  1   force =    -0.00000864    0.00000863   -0.00012016
     atom  246 type  1   force =     0.00013285   -0.00013284   -0.00030415
     atom  247 type  1   force =    -0.00014876    0.00014876   -0.00000258
     atom  248 type  1   force =     0.00005775   -0.00005775   -0.00023753
     atom  249 type  1   force =    -0.00020993    0.00020993    0.00020993
     atom  250 type  1   force =     0.00002430   -0.00002431   -0.00002430

     Total force =     0.005135     Total SCF correction =     0.000002

     Computing stress (Cartesian axis) and pressure

          total   stress  (Ry/bohr**3)                   (kbar)     P=   -4.13
  -0.00002808   0.00000243   0.00000243         -4.13      0.36      0.36
   0.00000243  -0.00002808  -0.00000243          0.36     -4.13     -0.36
   0.00000243  -0.00000243  -0.00002808          0.36     -0.36     -4.13

     Writing output data file b.save

     General routines

     Parallel routines

   This run was terminated on:  10:42:20  10Jan2021

   JOB DONE.