     Program PWSCF v.6.1 (svn rev. 13369) starts on 24May2021 at  9:15:49

     Current dimensions of program PWSCF are:
     Max number of different atomic species (ntypx) = 10
     Max number of k-points (npk) =  40000
     Max angular momentum in pseudopotentials (lmaxx) =  3

     IMPORTANT: XC functional enforced from input :
     Exchange-correlation      = PBE ( 1  4  3  4 0 0)
     Any further DFT definition will be discarded
     Please, verify this is what you really want

     bravais-lattice index     =            2
     lattice parameter (alat)  =      26.8137  a.u.
     unit-cell volume          =    4819.5928 (a.u.)^3
     number of atoms/cell      =          128
     number of atomic types    =            1
     number of electrons       =       512.00
     number of Kohn-Sham states=          300
     kinetic-energy cutoff     =      50.0000  Ry
     charge density cutoff     =     200.0000  Ry
     convergence threshold     =      1.0E-10
     mixing beta               =       0.7000
     number of iterations used =            8  local-TF  mixing
     Exchange-correlation      = PBE ( 1  4  3  4 0 0)
     nstep                     =           50

     celldm(1)=  26.813702  celldm(2)=   0.000000  celldm(3)=   0.000000
     celldm(4)=   0.000000  celldm(5)=   0.000000  celldm(6)=   0.000000

     crystal axes: (cart. coord. in units of alat)
               a(1) = (  -0.500000   0.000000   0.500000 )
               a(2) = (   0.000000   0.500000   0.500000 )
               a(3) = (  -0.500000   0.500000   0.000000 )

     reciprocal axes: (cart. coord. in units 2 pi/alat)
               b(1) = ( -1.000000 -1.000000  1.000000 )
               b(2) = (  1.000000  1.000000  1.000000 )
               b(3) = ( -1.000000  1.000000 -1.000000 )

     PseudoPot. # 1 for C  read from file:
     ~/PseudoPotential/upf/C_ONCV_PBE-1.0.upf
     MD5 check sum: Not computed, couldn't open file
     Pseudo is Norm-conserving, Zval =  4.0
     Generated using ONCVPSP code by D. R. Hamann
     Using radial grid of  602 points,  4 beta functions with:
                l(1) =   0
                l(2) =   0
                l(3) =   1
                l(4) =   1

     atomic species   valence    mass     pseudopotential
        C              4.00    12.01100     C ( 1.00)

     No symmetry found

   Cartesian axes

     site n.     atom                  positions (alat units)
         1           C   tau(   1) = (   0.0000000   0.0000000   0.0000000  )
         2           C   tau(   2) = (  -0.0625000   0.0625000   0.0625000  )
         3           C   tau(   3) = (  -0.1250000   0.1250000   0.0000000  )
         4           C   tau(   4) = (  -0.1875000   0.1875000   0.0625000  )
         5           C   tau(   5) = (  -0.2500000   0.2500000   0.0000000  )
         6           C   tau(   6) = (  -0.3125000   0.3125000   0.0625000  )
         7           C   tau(   7) = (  -0.3750000   0.3750000   0.0000000  )
         8           C   tau(   8) = (  -0.4375000   0.4375000   0.0625000  )
         9           C   tau(   9) = (   0.0000000   0.1250000   0.1250000  )
        10           C   tau(  10) = (  -0.0625000   0.1875000   0.1875000  )
        11           C   tau(  11) = (  -0.1250000   0.2500000   0.1250000  )
        12           C   tau(  12) = (  -0.1875000   0.3125000   0.1875000  )
        13           C   tau(  13) = (  -0.2500000   0.3750000   0.1250000  )
        14           C   tau(  14) = (  -0.3125000   0.4375000   0.1875000  )
        15           C   tau(  15) = (  -0.3750000   0.5000000   0.1250000  )
        16           C   tau(  16) = (  -0.4375000   0.5625000   0.1875000  )
        17           C   tau(  17) = (   0.0000000   0.2500000   0.2500000  )
        18           C   tau(  18) = (  -0.0625000   0.3125000   0.3125000  )
        19           C   tau(  19) = (  -0.1250000   0.3750000   0.2500000  )
        20           C   tau(  20) = (  -0.1875000   0.4375000   0.3125000  )
        21           C   tau(  21) = (  -0.2500000   0.5000000   0.2500000  )
        22           C   tau(  22) = (  -0.3125000   0.5625000   0.3125000  )
        23           C   tau(  23) = (  -0.3750000   0.6250000   0.2500000  )
        24           C   tau(  24) = (  -0.4375000   0.6875000   0.3125000  )
        25           C   tau(  25) = (   0.0000000   0.3750000   0.3750000  )
        26           C   tau(  26) = (  -0.0625000   0.4375000   0.4375000  )
        27           C   tau(  27) = (  -0.1250000   0.5000000   0.3750000  )
        28           C   tau(  28) = (  -0.1875000   0.5625000   0.4375000  )
        29           C   tau(  29) = (  -0.2500000   0.6250000   0.3750000  )
        30           C   tau(  30) = (  -0.3125000   0.6875000   0.4375000  )
        31           C   tau(  31) = (  -0.3750000   0.7500000   0.3750000  )
        32           C   tau(  32) = (  -0.4375000   0.8125000   0.4375000  )
        33           C   tau(  33) = (  -0.1250000   0.0000000   0.1250000  )
        34           C   tau(  34) = (  -0.1875000   0.0625000   0.1875000  )
        35           C   tau(  35) = (  -0.2500000   0.1250000   0.1250000  )
        36           C   tau(  36) = (  -0.3125000   0.1875000   0.1875000  )
        37           C   tau(  37) = (  -0.3750000   0.2500000   0.1250000  )
        38           C   tau(  38) = (  -0.4375000   0.3125000   0.1875000  )
        39           C   tau(  39) = (  -0.5000000   0.3750000   0.1250000  )
        40           C   tau(  40) = (  -0.5625000   0.4375000   0.1875000  )
        41           C   tau(  41) = (  -0.1250000   0.1250000   0.2500000  )
        42           C   tau(  42) = (  -0.1875000   0.1875000   0.3125000  )
        43           C   tau(  43) = (  -0.2500000   0.2500000   0.2500000  )
        44           C   tau(  44) = (  -0.3125000   0.3125000   0.3125000  )
        45           C   tau(  45) = (  -0.3750000   0.3750000   0.2500000  )
        46           C   tau(  46) = (  -0.4375000   0.4375000   0.3125000  )
        47           C   tau(  47) = (  -0.5000000   0.5000000   0.2500000  )
        48           C   tau(  48) = (  -0.5625000   0.5625000   0.3125000  )
        49           C   tau(  49) = (  -0.1250000   0.2500000   0.3750000  )
        50           C   tau(  50) = (  -0.1875000   0.3125000   0.4375000  )
        51           C   tau(  51) = (  -0.2500000   0.3750000   0.3750000  )
        52           C   tau(  52) = (  -0.3125000   0.4375000   0.4375000  )
        53           C   tau(  53) = (  -0.3750000   0.5000000   0.3750000  )
        54           C   tau(  54) = (  -0.4375000   0.5625000   0.4375000  )
        55           C   tau(  55) = (  -0.5000000   0.6250000   0.3750000  )
        56           C   tau(  56) = (  -0.5625000   0.6875000   0.4375000  )
        57           C   tau(  57) = (  -0.1250000   0.3750000   0.5000000  )
        58           C   tau(  58) = (  -0.1875000   0.4375000   0.5625000  )
        59           C   tau(  59) = (  -0.2500000   0.5000000   0.5000000  )
        60           C   tau(  60) = (  -0.3125000   0.5625000   0.5625000  )
[...]
       114           C   tau( 114) = (  -0.4375000   0.3125000   0.6875000  )
       115           C   tau( 115) = (  -0.5000000   0.3750000   0.6250000  )
       116           C   tau( 116) = (  -0.5625000   0.4375000   0.6875000  )
       117           C   tau( 117) = (  -0.6250000   0.5000000   0.6250000  )
       118           C   tau( 118) = (  -0.6875000   0.5625000   0.6875000  )
       119           C   tau( 119) = (  -0.7500000   0.6250000   0.6250000  )
       120           C   tau( 120) = (  -0.8125000   0.6875000   0.6875000  )
       121           C   tau( 121) = (  -0.3750000   0.3750000   0.7500000  )
       122           C   tau( 122) = (  -0.4375000   0.4375000   0.8125000  )
       123           C   tau( 123) = (  -0.5000000   0.5000000   0.7500000  )
       124           C   tau( 124) = (  -0.5625000   0.5625000   0.8125000  )
       125           C   tau( 125) = (  -0.6250000   0.6250000   0.7500000  )
       126           C   tau( 126) = (  -0.6875000   0.6875000   0.8125000  )
       127           C   tau( 127) = (  -0.7500000   0.7500000   0.7500000  )
       128           C   tau( 128) = (  -0.8125000   0.8125000   0.8125000  )

     number of k points=     1
                       cart. coord. in units 2pi/alat
        k(    1) = (   0.0000000   0.0000000   0.0000000), wk =   2.0000000

     Initial potential from superposition of free atoms

     starting charge  511.10830, renormalised to  512.00000
     Starting wfc are random

     Self-consistent Calculation

     iteration #  1     ecut=    50.00 Ry     beta=0.70
     CG style diagonalization
     ethr =  1.00E-02,  avg # of iterations = 12.4

     total energy              =   -1455.67421682 Ry
     Harris-Foulkes estimate   =   -1458.23793491 Ry
     estimated scf accuracy    <       7.83805265 Ry

[...]

     iteration #  4     ecut=    50.00 Ry     beta=0.70
     CG style diagonalization
     c_bands:  5 eigenvalues not converged
     ethr =  1.71E-06,  avg # of iterations =  6.8

[...]

     End of self-consistent calculation

          k = 0.0000 0.0000 0.0000 ( 28763 PWs)   bands (ev):

    -8.0322  -6.2987  -6.2987  -6.2987  -6.2987  -6.2987  -6.2987  -6.2987
    -6.2987  -5.7236  -5.7236  -5.7236  -5.7236  -5.7236  -5.7236  -3.5120
    -3.5120  -3.5120  -3.5119  -3.5119  -3.5119  -3.5119  -3.5119  -3.5119
    -3.5119  -3.5119  -3.5119  -2.1637  -2.1636  -2.1636  -2.1636  -1.9348
    -1.9348  -1.9348  -1.9348  -1.9348  -1.9348  -1.9348  -1.9348  -1.9348
    -1.9348  -1.9348  -1.9348  -1.9348  -1.9348  -1.9348  -1.9348  -1.9348
    -1.9348  -1.9348  -1.9348  -1.9347  -1.9347  -1.9347  -1.9347   0.1075
     0.1075   0.1075   0.1076   0.7856   0.7856   0.7856   0.7856   0.7856
     0.7856   1.6026   1.6026   1.6026   1.6026   1.6026   1.6026   1.6026
     1.6026   1.6026   1.6026   1.6026   1.6026   2.7619   2.7619   2.7619
     2.7619   2.7619   2.7619   2.7619   2.7619   2.7619   2.7619   2.7619
     2.7619   2.7619   2.7619   2.7619   2.7619   2.7619   2.7619   2.7619
     2.7619   2.7620   2.7620   2.7620   2.7620   4.8862   4.8862   4.8862
     4.8862   4.8862   4.8862   4.8862   4.8862   4.8862   4.8862   4.8862
     4.8862   5.2028   5.2028   5.2028   5.2028   5.2028   5.2028   5.2028
     5.2028   5.2028   5.2028   5.2028   5.2028   5.9466   5.9467   5.9467
     5.9467   5.9467   5.9467   5.9467   5.9467   5.9467   5.9467   5.9467
     5.9467   6.8433   6.8433   6.8433   6.8433   6.8434   6.8434   6.8434
     6.8434   6.8434   6.8434   6.8434   6.8434   6.8434   6.8434   6.8434
     6.8434   6.8434   6.8434   6.8434   6.8434   6.8434   6.8434   6.8434
     6.8434   7.0005   7.0005   7.0005   7.0005   7.0005   7.0005   7.0005
     7.0005   7.2720   7.2720   7.2720   7.2720   7.2720   7.2720   8.7132
     8.7132   8.7132   8.7132   8.7132   8.7132   8.7132   8.7132   8.7132
     8.7132   8.7132   8.7132   8.7132   8.7132   8.7132   8.7132   8.7132
     8.7132   8.7132   8.7132   8.7132   8.7132   8.7132   8.7132   9.1402
     9.1402   9.1402   9.1402   9.1402   9.1402   9.4806   9.4806   9.4806
[...]

     atomic species   valence    mass     pseudopotential
        C              4.00    12.01100     C ( 1.00)

     No symmetry found

   Cartesian axes

     site n.     atom                  positions (alat units)
         1           C   tau(   1) = (   0.0000000   0.0000000   0.0000000  )
         2           C   tau(   2) = (  -0.0622779   0.0622779   0.0622779  )
         3           C   tau(   3) = (  -0.1245530   0.1245530  -0.0000001  )
         4           C   tau(   4) = (  -0.1868282   0.1868282   0.0622779  )
         5           C   tau(   5) = (  -0.2491060   0.2491060   0.0000000  )
         6           C   tau(   6) = (  -0.3113839   0.3113839   0.0622779  )
         7           C   tau(   7) = (  -0.3736591   0.3736591  -0.0000001  )
         8           C   tau(   8) = (  -0.4359342   0.4359342   0.0622779  )
         9           C   tau(   9) = (   0.0000001   0.1245530   0.1245530  )
        10           C   tau(  10) = (  -0.0622779   0.1868282   0.1868282  )
        11           C   tau(  11) = (  -0.1245530   0.2491062   0.1245530  )
        12           C   tau(  12) = (  -0.1868284   0.3113837   0.1868284  )
        13           C   tau(  13) = (  -0.2491059   0.3736591   0.1245530  )
        14           C   tau(  14) = (  -0.3113839   0.4359342   0.1868282  )
        15           C   tau(  15) = (  -0.3736591   0.4982122   0.1245530  )
        16           C   tau(  16) = (  -0.4359344   0.5604897   0.1868284  )
        17           C   tau(  17) = (   0.0000000   0.2491060   0.2491060  )
        18           C   tau(  18) = (  -0.0622779   0.3113839   0.3113839  )
        19           C   tau(  19) = (  -0.1245530   0.3736591   0.2491059  )
        20           C   tau(  20) = (  -0.1868282   0.4359342   0.3113839  )
        21           C   tau(  21) = (  -0.2491060   0.4982121   0.2491060  )
        22           C   tau(  22) = (  -0.3113839   0.5604899   0.3113839  )
        23           C   tau(  23) = (  -0.3736591   0.6227651   0.2491059  )
        24           C   tau(  24) = (  -0.4359342   0.6850402   0.3113839  )
        25           C   tau(  25) = (   0.0000001   0.3736591   0.3736591  )
        26           C   tau(  26) = (  -0.0622779   0.4359342   0.4359342  )
        27           C   tau(  27) = (  -0.1245530   0.4982122   0.3736591  )
        28           C   tau(  28) = (  -0.1868284   0.5604897   0.4359344  )
        29           C   tau(  29) = (  -0.2491059   0.6227651   0.3736591  )
        30           C   tau(  30) = (  -0.3113839   0.6850402   0.4359342  )
        31           C   tau(  31) = (  -0.3736591   0.7473182   0.3736591  )
        32           C   tau(  32) = (  -0.4359344   0.8095958   0.4359344  )
        33           C   tau(  33) = (  -0.1245530  -0.0000001   0.1245530  )
        34           C   tau(  34) = (  -0.1868282   0.0622779   0.1868282  )
        35           C   tau(  35) = (  -0.2491062   0.1245530   0.1245530  )
        36           C   tau(  36) = (  -0.3113837   0.1868284   0.1868284  )
        37           C   tau(  37) = (  -0.3736591   0.2491059   0.1245530  )
        38           C   tau(  38) = (  -0.4359342   0.3113839   0.1868282  )
        39           C   tau(  39) = (  -0.4982122   0.3736591   0.1245530  )
        40           C   tau(  40) = (  -0.5604897   0.4359344   0.1868284  )
        41           C   tau(  41) = (  -0.1245530   0.1245530   0.2491062  )
        42           C   tau(  42) = (  -0.1868284   0.1868284   0.3113837  )
        43           C   tau(  43) = (  -0.2491060   0.2491060   0.2491060  )
        44           C   tau(  44) = (  -0.3113837   0.3113837   0.3113837  )
        45           C   tau(  45) = (  -0.3736591   0.3736591   0.2491062  )
        46           C   tau(  46) = (  -0.4359344   0.4359344   0.3113837  )
        47           C   tau(  47) = (  -0.4982121   0.4982121   0.2491060  )
        48           C   tau(  48) = (  -0.5604897   0.5604897   0.3113837  )
        49           C   tau(  49) = (  -0.1245530   0.2491059   0.3736591  )
        50           C   tau(  50) = (  -0.1868282   0.3113839   0.4359342  )
        51           C   tau(  51) = (  -0.2491062   0.3736591   0.3736591  )
        52           C   tau(  52) = (  -0.3113837   0.4359344   0.4359344  )
        53           C   tau(  53) = (  -0.3736591   0.4982119   0.3736591  )
        54           C   tau(  54) = (  -0.4359342   0.5604899   0.4359342  )
        55           C   tau(  55) = (  -0.4982122   0.6227651   0.3736591  )
        56           C   tau(  56) = (  -0.5604897   0.6850404   0.4359344  )
        57           C   tau(  57) = (  -0.1245530   0.3736591   0.4982122  )
        58           C   tau(  58) = (  -0.1868284   0.4359344   0.5604897  )
        59           C   tau(  59) = (  -0.2491060   0.4982121   0.4982121  )
        60           C   tau(  60) = (  -0.3113837   0.5604897   0.5604897  )
[...]
       114           C   tau( 114) = (  -0.4359342   0.3113839   0.6850402  )
       115           C   tau( 115) = (  -0.4982122   0.3736591   0.6227651  )
       116           C   tau( 116) = (  -0.5604897   0.4359344   0.6850404  )
       117           C   tau( 117) = (  -0.6227651   0.4982119   0.6227651  )
       118           C   tau( 118) = (  -0.6850402   0.5604899   0.6850402  )
       119           C   tau( 119) = (  -0.7473182   0.6227651   0.6227651  )
       120           C   tau( 120) = (  -0.8095958   0.6850404   0.6850404  )
       121           C   tau( 121) = (  -0.3736591   0.3736591   0.7473183  )
       122           C   tau( 122) = (  -0.4359344   0.4359344   0.8095958  )
       123           C   tau( 123) = (  -0.4982121   0.4982121   0.7473181  )
       124           C   tau( 124) = (  -0.5604897   0.5604897   0.8095958  )
       125           C   tau( 125) = (  -0.6227651   0.6227651   0.7473183  )
       126           C   tau( 126) = (  -0.6850404   0.6850404   0.8095958  )
       127           C   tau( 127) = (  -0.7473181   0.7473181   0.7473181  )
       128           C   tau( 128) = (  -0.8095958   0.8095958   0.8095958  )

     number of k points=     1
                       cart. coord. in units 2pi/alat
        k(    1) = (   0.0000000   0.0000000   0.0000000), wk =   2.0000000

     Initial potential from superposition of free atoms

     starting charge  511.10830, renormalised to  512.00000
     Starting wfc are random

     Writing output data file c.save

     Self-consistent Calculation

[...]

     iteration #  6     ecut=    50.00 Ry     beta=0.70
     CG style diagonalization
     ethr =  6.56E-09,  avg # of iterations =  5.1

[...]

     total energy              = -1456.700056990189751 Ry
     Harris-Foulkes estimate   =   -1456.70005699 Ry
     estimated scf accuracy    <          3.5E-12 Ry

     iteration # 13     ecut=    50.00 Ry     beta=0.70
     CG style diagonalization
     c_bands:  5 eigenvalues not converged
     ethr =  1.00E-13,  avg # of iterations =  3.3

     End of self-consistent calculation

          k = 0.0000 0.0000 0.0000 ( 28571 PWs)   bands (ev):

    -7.9811  -6.2344  -6.2344  -6.2344  -6.2344  -6.2343  -6.2343  -6.2343
    -6.2343  -5.6555  -5.6555  -5.6555  -5.6553  -5.6553  -5.6553  -3.4254
    -3.4254  -3.4254  -3.4252  -3.4252  -3.4252  -3.4252  -3.4252  -3.4252
    -3.4249  -3.4249  -3.4249  -2.0489  -2.0489  -2.0489  -2.0485  -1.8333
    -1.8333  -1.8333  -1.8333  -1.8333  -1.8333  -1.8333  -1.8333  -1.8333
    -1.8333  -1.8333  -1.8333  -1.8333  -1.8333  -1.8333  -1.8333  -1.8332
    -1.8332  -1.8332  -1.8332  -1.8330  -1.8330  -1.8330  -1.8330   0.1842
     0.1845   0.1845   0.1845   0.9050   0.9050   0.9051   0.9051   0.9051
     0.9053   1.7400   1.7400   1.7400   1.7402   1.7402   1.7402   1.7402
     1.7402   1.7402   1.7403   1.7403   1.7403   2.8791   2.8791   2.8791
     2.8791   2.8792   2.8792   2.8792   2.8792   2.8792   2.8792   2.8792
     2.8792   2.8792   2.8792   2.8792   2.8792   2.8792   2.8792   2.8792
     2.8792   2.8792   2.8792   2.8792   2.8792   5.0278   5.0278   5.0278
     5.0278   5.0278   5.0278   5.0278   5.0278   5.0278   5.0279   5.0279
     5.0279   5.3038   5.3038   5.3038   5.3039   5.3039   5.3039   5.3039
     5.3039   5.3039   5.3039   5.3039   5.3039   6.0669   6.0669   6.0669
     6.0671   6.0671   6.0671   6.0672   6.0672   6.0672   6.0672   6.0672
     6.0672   6.9817   6.9817   6.9817   6.9817   6.9817   6.9817   6.9817
     6.9817   6.9818   6.9818   6.9818   6.9818   6.9818   6.9818   6.9818
     6.9818   6.9820   6.9820   6.9820   6.9820   6.9820   6.9820   6.9820
     6.9820   7.1445   7.1445   7.1445   7.1445   7.1446   7.1446   7.1446
     7.1446   7.4008   7.4008   7.4008   7.4010   7.4010   7.4010   8.8562
     8.8562   8.8562   8.8562   8.8563   8.8563   8.8563   8.8563   8.8564
     8.8564   8.8564   8.8564   8.8564   8.8564   8.8564   8.8564   8.8564
     8.8564   8.8564   8.8564   8.8564   8.8564   8.8564   8.8564   9.3231
     9.3231   9.3231   9.3232   9.3232   9.3232   9.6298   9.6298   9.6298
     9.6298   9.6298   9.6298   9.6303   9.6303   9.6303   9.6303   9.6303
     9.6303  10.7819  10.7819  10.7819  10.7823  10.7823  10.7823  10.7824
    10.7824  10.7824  10.7824  10.7824  10.7824  11.0010  11.0010  11.0013
    11.0013  11.0013  11.0016  11.0016  11.0016  12.0834  12.0834  12.0834
    12.0834  12.0834  12.0834  12.0834  12.0834  12.0834  12.0834  12.0834
    12.0834  12.0834  12.0834  12.0834  12.0834  13.8839  13.8839  13.8839
    18.3982  18.3982  18.3982  18.3983  18.3983  18.3983  18.7005  18.7010
    18.7010  18.7010  18.7013  18.7013  19.5507  19.5507  19.5507  20.0522
    20.0522  20.0522  20.0522  20.0523  20.0523  20.0523  20.0523  20.0526
    20.0526  20.0526  20.0526  20.0526  20.0526  20.0526  20.0526  20.0527
    20.0527  20.0527  20.0527  20.0527  20.0527  20.0527  20.0527  21.8194
    21.8194  21.8194  21.8194  21.8194

     highest occupied, lowest unoccupied level (ev):    13.8839   18.3982

!    total energy              = -1456.700056990191342 Ry
     Harris-Foulkes estimate   =   -1456.70005699 Ry
     estimated scf accuracy    <          3.6E-13 Ry

     The total energy is the sum of the following terms:

     one-electron contribution =     530.78594450 Ry
     hartree contribution      =     122.89023299 Ry
     xc contribution           =    -458.72017063 Ry
     ewald contribution        =   -1651.65606385 Ry

     convergence has been achieved in  13 iterations

     Forces acting on atoms (cartesian axes, Ry/au):

     atom    1 type  1   force =     0.00000004    0.00000001    0.00000003
     atom    2 type  1   force =     0.00000807   -0.00000795   -0.00000797
     atom    3 type  1   force =     0.00000004    0.00000003    0.00000099
     atom    4 type  1   force =    -0.00000793    0.00000812   -0.00000805
     atom    5 type  1   force =    -0.00000002   -0.00000006    0.00000002
     atom    6 type  1   force =     0.00000804   -0.00000802   -0.00000788
     atom    7 type  1   force =    -0.00000003   -0.00000006    0.00000096
     atom    8 type  1   force =    -0.00000804    0.00000805   -0.00000797
     atom    9 type  1   force =    -0.00000094   -0.00000001    0.00000002
     atom   10 type  1   force =     0.00000805    0.00000803    0.00000804
     atom   11 type  1   force =     0.00000001   -0.00000100    0.00000005
     atom   12 type  1   force =    -0.00000558   -0.00000567    0.00000563
     atom   13 type  1   force =    -0.00000099   -0.00000003    0.00000002
     atom   14 type  1   force =     0.00000797    0.00000800    0.00000798
     atom   15 type  1   force =    -0.00000002   -0.00000096    0.00000001
     atom   16 type  1   force =    -0.00000567   -0.00000563    0.00000566
     atom   17 type  1   force =     0.00000001   -0.00000006   -0.00000002
     atom   18 type  1   force =     0.00000806   -0.00000807   -0.00000806
     atom   19 type  1   force =     0.00000000   -0.00000002    0.00000092
     atom   20 type  1   force =    -0.00000796    0.00000804   -0.00000805
     atom   21 type  1   force =    -0.00000004    0.00000002    0.00000001
     atom   22 type  1   force =     0.00000799   -0.00000792   -0.00000810
     atom   23 type  1   force =    -0.00000004   -0.00000002    0.00000094
     atom   24 type  1   force =    -0.00000803    0.00000808   -0.00000809
     atom   25 type  1   force =    -0.00000097   -0.00000001   -0.00000002
     atom   26 type  1   force =     0.00000807    0.00000805    0.00000799
     atom   27 type  1   force =     0.00000004   -0.00000092   -0.00000002
     atom   28 type  1   force =    -0.00000559   -0.00000563    0.00000563
     atom   29 type  1   force =    -0.00000095    0.00000001   -0.00000004
     atom   30 type  1   force =     0.00000794    0.00000803    0.00000800
     atom   31 type  1   force =     0.00000000   -0.00000101   -0.00000005
     atom   32 type  1   force =    -0.00000569   -0.00000564    0.00000565
     atom   33 type  1   force =     0.00000006    0.00000098    0.00000003
     atom   34 type  1   force =    -0.00000795   -0.00000798    0.00000807
     atom   35 type  1   force =     0.00000095    0.00000002    0.00000001
     atom   36 type  1   force =     0.00000561    0.00000564    0.00000567
     atom   37 type  1   force =    -0.00000006    0.00000093    0.00000003
     atom   38 type  1   force =    -0.00000806   -0.00000804    0.00000804
     atom   39 type  1   force =     0.00000094   -0.00000001    0.00000002
     atom   40 type  1   force =     0.00000573    0.00000566    0.00000572
     atom   41 type  1   force =     0.00000007   -0.00000001   -0.00000103
     atom   42 type  1   force =    -0.00000564    0.00000565   -0.00000568
     atom   43 type  1   force =    -0.00000000   -0.00000001   -0.00000002
     atom   44 type  1   force =     0.00000559   -0.00000564   -0.00000567
     atom   45 type  1   force =    -0.00000003   -0.00000004   -0.00000103
     atom   46 type  1   force =    -0.00000573    0.00000566   -0.00000566
     atom   47 type  1   force =    -0.00000002    0.00000002   -0.00000006
     atom   48 type  1   force =     0.00000572   -0.00000564   -0.00000568
     atom   49 type  1   force =     0.00000006    0.00000095   -0.00000006
     atom   50 type  1   force =    -0.00000791   -0.00000804    0.00000810
     atom   51 type  1   force =     0.00000094   -0.00000004   -0.00000008
     atom   52 type  1   force =     0.00000561    0.00000569    0.00000568
     atom   53 type  1   force =    -0.00000004    0.00000096   -0.00000008
     atom   54 type  1   force =    -0.00000805   -0.00000797    0.00000806
     atom   55 type  1   force =     0.00000093    0.00000002   -0.00000008
     atom   56 type  1   force =     0.00000569    0.00000565    0.00000568
     atom   57 type  1   force =     0.00000006   -0.00000005   -0.00000095
     atom   58 type  1   force =    -0.00000562    0.00000567   -0.00000561
     atom   59 type  1   force =     0.00000001    0.00000004    0.00000000
     atom   60 type  1   force =     0.00000558   -0.00000562   -0.00000561
[...]
     atom  114 type  1   force =    -0.00000803   -0.00000809    0.00000805
     atom  115 type  1   force =     0.00000091   -0.00000001    0.00000004
     atom  116 type  1   force =     0.00000575    0.00000566    0.00000570
     atom  117 type  1   force =    -0.00000000    0.00000098    0.00000002
     atom  118 type  1   force =    -0.00000798   -0.00000796    0.00000807
     atom  119 type  1   force =     0.00000095   -0.00000003    0.00000001
     atom  120 type  1   force =     0.00000558    0.00000566    0.00000570
     atom  121 type  1   force =    -0.00000000   -0.00000001   -0.00000099
     atom  122 type  1   force =    -0.00000570    0.00000562   -0.00000565
     atom  123 type  1   force =    -0.00000003   -0.00000001   -0.00000003
     atom  124 type  1   force =     0.00000568   -0.00000563   -0.00000566
     atom  125 type  1   force =     0.00000005    0.00000001   -0.00000102
     atom  126 type  1   force =    -0.00000567    0.00000567   -0.00000567
     atom  127 type  1   force =     0.00000003   -0.00000003   -0.00000004
     atom  128 type  1   force =     0.00000556   -0.00000567   -0.00000567

     Total force =     0.000096     Total SCF correction =     0.000002

     Computing stress (Cartesian axis) and pressure

          total   stress  (Ry/bohr**3)                   (kbar)     P=   -3.03
  -0.00002057  -0.00000000  -0.00000000         -3.03     -0.00     -0.00
  -0.00000000  -0.00002057  -0.00000000         -0.00     -3.03     -0.00
  -0.00000000  -0.00000000  -0.00002057         -0.00     -0.00     -3.03

     Writing output data file c.save

     General routines

     Parallel routines

   This run was terminated on:   9:34:32  24May2021

   JOB DONE.