     Program PWSCF v.6.1 (svn rev. 13369) starts on 29Dec2020 at 11:10:53

     Current dimensions of program PWSCF are:
     Max number of different atomic species (ntypx) = 10
     Max number of k-points (npk) =  40000
     Max angular momentum in pseudopotentials (lmaxx) =  3

     IMPORTANT: XC functional enforced from input :
     Exchange-correlation      = PBE ( 1  4  3  4 0 0)
     Any further DFT definition will be discarded
     Please, verify this is what you really want

     bravais-lattice index     =            2
     lattice parameter (alat)  =       6.7034  a.u.
     unit-cell volume          =      75.3061 (a.u.)^3
     number of atoms/cell      =            2
     number of atomic types    =            1
     number of electrons       =         8.00
     number of Kohn-Sham states=            8
     kinetic-energy cutoff     =      60.0000  Ry
     charge density cutoff     =     240.0000  Ry
     convergence threshold     =      1.0E-15
     mixing beta               =       0.7000
     number of iterations used =            8  local-TF  mixing
     Exchange-correlation      = PBE ( 1  4  3  4 0 0)
     nstep                     =           50

     celldm(1)=   6.703426  celldm(2)=   0.000000  celldm(3)=   0.000000
     celldm(4)=   0.000000  celldm(5)=   0.000000  celldm(6)=   0.000000

     crystal axes: (cart. coord. in units of alat)
               a(1) = (  -0.500000   0.000000   0.500000 )
               a(2) = (   0.000000   0.500000   0.500000 )
               a(3) = (  -0.500000   0.500000   0.000000 )

     reciprocal axes: (cart. coord. in units 2 pi/alat)
               b(1) = ( -1.000000 -1.000000  1.000000 )
               b(2) = (  1.000000  1.000000  1.000000 )
               b(3) = ( -1.000000  1.000000 -1.000000 )

     PseudoPot. # 1 for C  read from file:
     ../C_ONCV_PBE-1.0.upf
     MD5 check sum: 40f8c33130f0afa4272e9dcc1c4fb0df
     Pseudo is Norm-conserving, Zval =  4.0
     Generated using ONCVPSP code by D. R. Hamann
     Using radial grid of  602 points,  4 beta functions with:
                l(1) =   0
                l(2) =   0
                l(3) =   1
                l(4) =   1

     atomic species   valence    mass     pseudopotential
        C              4.00    12.01100     C ( 1.00)

     48 Sym. Ops., with inversion, found (24 have fractional translation)

   Cartesian axes

     site n.     atom                  positions (alat units)
         1           C   tau(   1) = (   0.0000000   0.0000000   0.0000000  )
         2           C   tau(   2) = (  -0.2500000   0.2500000   0.2500000  )

     number of k points=    29
                       cart. coord. in units 2pi/alat
        k(    1) = (   0.0000000   0.0000000   0.0000000), wk =   0.0039062
        k(    2) = (  -0.1250000   0.1250000  -0.1250000), wk =   0.0312500
        k(    3) = (  -0.2500000   0.2500000  -0.2500000), wk =   0.0312500
        k(    4) = (  -0.3750000   0.3750000  -0.3750000), wk =   0.0312500
        k(    5) = (   0.5000000  -0.5000000   0.5000000), wk =   0.0156250
        k(    6) = (   0.0000000   0.2500000   0.0000000), wk =   0.0234375
        k(    7) = (  -0.1250000   0.3750000  -0.1250000), wk =   0.0937500
        k(    8) = (  -0.2500000   0.5000000  -0.2500000), wk =   0.0937500
        k(    9) = (   0.6250000  -0.3750000   0.6250000), wk =   0.0937500
        k(   10) = (   0.5000000  -0.2500000   0.5000000), wk =   0.0937500
        k(   11) = (   0.3750000  -0.1250000   0.3750000), wk =   0.0937500
        k(   12) = (   0.2500000   0.0000000   0.2500000), wk =   0.0468750
        k(   13) = (   0.0000000   0.5000000   0.0000000), wk =   0.0234375
        k(   14) = (  -0.1250000   0.6250000  -0.1250000), wk =   0.0937500
        k(   15) = (   0.7500000  -0.2500000   0.7500000), wk =   0.0937500
        k(   16) = (   0.6250000  -0.1250000   0.6250000), wk =   0.0937500
        k(   17) = (   0.5000000   0.0000000   0.5000000), wk =   0.0468750
        k(   18) = (   0.0000000   0.7500000   0.0000000), wk =   0.0234375
        k(   19) = (   0.8750000  -0.1250000   0.8750000), wk =   0.0937500
        k(   20) = (   0.7500000   0.0000000   0.7500000), wk =   0.0468750
        k(   21) = (   0.0000000  -1.0000000   0.0000000), wk =   0.0117188
        k(   22) = (  -0.2500000   0.5000000   0.0000000), wk =   0.0937500
        k(   23) = (   0.6250000  -0.3750000   0.8750000), wk =   0.1875000
        k(   24) = (   0.5000000  -0.2500000   0.7500000), wk =   0.0937500
        k(   25) = (   0.7500000  -0.2500000   1.0000000), wk =   0.0937500
        k(   26) = (   0.6250000  -0.1250000   0.8750000), wk =   0.1875000
        k(   27) = (   0.5000000   0.0000000   0.7500000), wk =   0.0937500
        k(   28) = (  -0.2500000  -1.0000000   0.0000000), wk =   0.0468750
        k(   29) = (  -0.5000000  -1.0000000   0.0000000), wk =   0.0234375

     Initial potential from superposition of free atoms

     starting charge    7.98607, renormalised to    8.00000
     Starting wfc are random

     Self-consistent Calculation

     iteration #  1     ecut=    60.00 Ry     beta=0.70
     Davidson diagonalization with overlap
     ethr =  1.00E-02,  avg # of iterations =  7.2

     total energy              =     -22.78844389 Ry
     Harris-Foulkes estimate   =     -22.82736422 Ry
     estimated scf accuracy    <       0.11891082 Ry

[...]

     End of self-consistent calculation

          k = 0.0000 0.0000 0.0000 (   609 PWs)   bands (ev):

    -8.0462  13.6128  13.6128  13.6128  19.2660  19.2660  19.2660  27.3323

          k =-0.1250 0.1250-0.1250 (   576 PWs)   bands (ev):

[...]

     highest occupied, lowest unoccupied level (ev):    13.6128   17.8275

!    total energy              =     -22.78317573 Ry
     Harris-Foulkes estimate   =     -22.78317573 Ry
     estimated scf accuracy    <          5.3E-16 Ry

     The total energy is the sum of the following terms:

     one-electron contribution =       8.15475404 Ry
     hartree contribution      =       1.92102327 Ry
     xc contribution           =      -7.14410961 Ry
     ewald contribution        =     -25.71484343 Ry

     convergence has been achieved in  11 iterations

     Forces acting on atoms (cartesian axes, Ry/au):

     atom    1 type  1   force =     0.00000000    0.00000000   -0.00000000
     atom    2 type  1   force =    -0.00000000   -0.00000000    0.00000000

     Total force =     0.000000     Total SCF correction =     0.000000

     Computing stress (Cartesian axis) and pressure

          total   stress  (Ry/bohr**3)                   (kbar)     P=   26.78
   0.00018204   0.00000000  -0.00000000         26.78      0.00     -0.00
  -0.00000000   0.00018204   0.00000000         -0.00     26.78      0.00
  -0.00000000   0.00000000   0.00018204         -0.00      0.00     26.78

     BFGS Geometry Optimization

     number of scf cycles    =   1
     number of bfgs steps    =   0

     enthalpy new            =     -22.7831757251 Ry

     new trust radius        =       0.0078984927 bohr
     new conv_thr            =            1.0E-15 Ry

     new unit-cell volume =     76.33896 a.u.^3 (    11.31227 Ang^3 )
     density =      3.52621 g/cm^3

CELL_PARAMETERS (alat=  6.70342551)
  -0.502275459   0.000000000   0.502275459
  -0.000000000   0.502275459   0.502275459
  -0.502275459   0.502275459   0.000000000

ATOMIC_POSITIONS (crystal)
C       -0.000000000   0.000000000   0.000000000
C        0.250000000   0.250000000   0.250000000

     Writing output data file c.save
     NEW-OLD atomic charge density approx. for the potential
     extrapolated charge    8.10805, renormalised to    8.00000

[...]

     number of scf cycles    =   2
     number of bfgs steps    =   1

     enthalpy old            =     -22.7831757251 Ry
     enthalpy new            =     -22.7831369680 Ry

     CASE: enthalpy_new > enthalpy_old

     new trust radius        =       0.0032791668 bohr
     new conv_thr            =            1.0E-15 Ry

     new unit-cell volume =     75.73282 a.u.^3 (    11.22245 Ang^3 )
     density =      3.55444 g/cm^3

[...]

ATOMIC_POSITIONS (crystal)
C       -0.000000000   0.000000000   0.000000000
C        0.250000000   0.250000000   0.250000000

     Writing output data file c.save
     NEW-OLD atomic charge density approx. for the potential
     extrapolated charge    7.93608, renormalised to    8.00000

[...]

     bfgs converged in   3 scf cycles and   1 bfgs steps
     (criteria: energy <  1.0E-04 Ry, force <  1.0E-03Ry/Bohr, cell <  5.0E-01kbar)

     End of BFGS Geometry Optimization

     Final enthalpy =     -22.7832142375 Ry
Begin final coordinates
     new unit-cell volume =     75.73282 a.u.^3 (    11.22245 Ang^3 )
     density =      3.55444 g/cm^3

CELL_PARAMETERS (alat=  6.70342551)
  -0.500942546   0.000000000   0.500942546
  -0.000000000   0.500942546   0.500942546
  -0.500942546   0.500942546   0.000000000

ATOMIC_POSITIONS (crystal)
C       -0.000000000   0.000000000   0.000000000
C        0.250000000   0.250000000   0.250000000
End final coordinates

     A final scf calculation at the relaxed structure.
     The G-vectors are recalculated for the final unit cell
     Results may differ from those at the preceding step.

     bravais-lattice index     =            2
     lattice parameter (alat)  =       6.7034  a.u.
     unit-cell volume          =      75.7328 (a.u.)^3
     number of atoms/cell      =            2
     number of atomic types    =            1
     number of electrons       =         8.00
     number of Kohn-Sham states=            8
     kinetic-energy cutoff     =      60.0000  Ry
     charge density cutoff     =     240.0000  Ry
     convergence threshold     =      1.0E-15
     mixing beta               =       0.7000
     number of iterations used =            8  local-TF  mixing
     Exchange-correlation      = PBE ( 1  4  3  4 0 0)

     celldm(1)=   6.703426  celldm(2)=   0.000000  celldm(3)=   0.000000
     celldm(4)=   0.000000  celldm(5)=   0.000000  celldm(6)=   0.000000

     crystal axes: (cart. coord. in units of alat)
               a(1) = (  -0.500943   0.000000   0.500943 )
               a(2) = (  -0.000000   0.500943   0.500943 )
               a(3) = (  -0.500943   0.500943   0.000000 )

     reciprocal axes: (cart. coord. in units 2 pi/alat)
               b(1) = ( -0.998118 -0.998118  0.998118 )
               b(2) = (  0.998118  0.998118  0.998118 )
               b(3) = ( -0.998118  0.998118 -0.998118 )

     PseudoPot. # 1 for C  read from file:
     ../C_ONCV_PBE-1.0.upf
     MD5 check sum: 40f8c33130f0afa4272e9dcc1c4fb0df
     Pseudo is Norm-conserving, Zval =  4.0
     Generated using ONCVPSP code by D. R. Hamann
     Using radial grid of  602 points,  4 beta functions with:
                l(1) =   0
                l(2) =   0
                l(3) =   1
                l(4) =   1

     atomic species   valence    mass     pseudopotential
        C              4.00    12.01100     C ( 1.00)

     48 Sym. Ops., with inversion, found (24 have fractional translation)

   Cartesian axes

     site n.     atom                  positions (alat units)
         1           C   tau(   1) = (   0.0000000   0.0000000  -0.0000000  )
         2           C   tau(   2) = (  -0.2504713   0.2504713   0.2504713  )

     number of k points=    29
                       cart. coord. in units 2pi/alat
        k(    1) = (   0.0000000   0.0000000   0.0000000), wk =   0.0039062
        k(    2) = (  -0.1247648   0.1247648  -0.1247648), wk =   0.0312500
        k(    3) = (  -0.2495296   0.2495296  -0.2495296), wk =   0.0312500
        k(    4) = (  -0.3742944   0.3742944  -0.3742944), wk =   0.0312500
        k(    5) = (   0.4990592  -0.4990592   0.4990592), wk =   0.0156250
        k(    6) = (   0.0000000   0.2495296   0.0000000), wk =   0.0234375
        k(    7) = (  -0.1247648   0.3742944  -0.1247648), wk =   0.0937500
        k(    8) = (  -0.2495296   0.4990592  -0.2495296), wk =   0.0937500
        k(    9) = (   0.6238240  -0.3742944   0.6238240), wk =   0.0937500
        k(   10) = (   0.4990592  -0.2495296   0.4990592), wk =   0.0937500
        k(   11) = (   0.3742944  -0.1247648   0.3742944), wk =   0.0937500
        k(   12) = (   0.2495296   0.0000000   0.2495296), wk =   0.0468750
        k(   13) = (   0.0000000   0.4990592   0.0000000), wk =   0.0234375
        k(   14) = (  -0.1247648   0.6238240  -0.1247648), wk =   0.0937500
        k(   15) = (   0.7485888  -0.2495296   0.7485888), wk =   0.0937500
        k(   16) = (   0.6238240  -0.1247648   0.6238240), wk =   0.0937500
        k(   17) = (   0.4990592   0.0000000   0.4990592), wk =   0.0468750
        k(   18) = (   0.0000000   0.7485888   0.0000000), wk =   0.0234375
        k(   19) = (   0.8733536  -0.1247648   0.8733536), wk =   0.0937500
        k(   20) = (   0.7485888   0.0000000   0.7485888), wk =   0.0468750
        k(   21) = (   0.0000000  -0.9981185   0.0000000), wk =   0.0117188
        k(   22) = (  -0.2495296   0.4990592   0.0000000), wk =   0.0937500
        k(   23) = (   0.6238240  -0.3742944   0.8733536), wk =   0.1875000
        k(   24) = (   0.4990592  -0.2495296   0.7485888), wk =   0.0937500
        k(   25) = (   0.7485888  -0.2495296   0.9981185), wk =   0.0937500
        k(   26) = (   0.6238240  -0.1247648   0.8733536), wk =   0.1875000
        k(   27) = (   0.4990592   0.0000000   0.7485888), wk =   0.0937500
        k(   28) = (  -0.2495296  -0.9981185   0.0000000), wk =   0.0468750
        k(   29) = (  -0.4990592  -0.9981185   0.0000000), wk =   0.0234375

     Initial potential from superposition of free atoms

     starting charge    7.98607, renormalised to    8.00000
     Starting wfc are random

     Writing output data file c.save

     Self-consistent Calculation

[...]

     total energy              =     -22.78334585 Ry
     Harris-Foulkes estimate   =     -22.78334585 Ry
     estimated scf accuracy    <          3.3E-14 Ry

     iteration # 11     ecut=    60.00 Ry     beta=0.70
     Davidson diagonalization with overlap
     ethr =  1.00E-13,  avg # of iterations =  1.0

     End of self-consistent calculation

[...]

          k = 0.4991 0.0000 0.7486 (   590 PWs)   bands (ev):

[...]

          k =-0.4991-0.9981 0.0000 (   604 PWs)   bands (ev):

     1.5062   1.5062   5.1120   5.1120  24.2154  24.2154  25.9799  25.9799

     highest occupied, lowest unoccupied level (ev):    13.5105   17.7119

!    total energy              =     -22.78334585 Ry
     Harris-Foulkes estimate   =     -22.78334585 Ry
     estimated scf accuracy    <          9.4E-16 Ry

     The total energy is the sum of the following terms:

     one-electron contribution =       8.09125032 Ry
     hartree contribution      =       1.92671743 Ry
     xc contribution           =      -7.13485379 Ry
     ewald contribution        =     -25.66645981 Ry

     convergence has been achieved in  11 iterations

     Forces acting on atoms (cartesian axes, Ry/au):

     atom    1 type  1   force =     0.00000000    0.00000000    0.00000000
     atom    2 type  1   force =    -0.00000000   -0.00000000   -0.00000000

     Total force =     0.000000     Total SCF correction =     0.000000

     Computing stress (Cartesian axis) and pressure

          total   stress  (Ry/bohr**3)                   (kbar)     P=    1.19
   0.00000810   0.00000000   0.00000000          1.19      0.00      0.00
   0.00000000   0.00000810  -0.00000000          0.00      1.19     -0.00
   0.00000000   0.00000000   0.00000810          0.00      0.00      1.19

     Writing output data file c.save

     General routines

     Parallel routines

   This run was terminated on:  11:11: 7  29Dec2020

   JOB DONE.